*SPEF "ieee 1481-1999"
*DESIGN "tlul_sram_if_macro"
*DATE "17:46:20 Saturday June 20, 2026"
*VENDOR "The OpenROAD Project"
*PROGRAM "OpenROAD"
*VERSION "dcf36133a369abc8f3c5e5738cd4d82e4903c0e0"
*DESIGN_FLOW "NAME_SCOPE LOCAL" "PIN_CAP NONE"
*DIVIDER /
*DELIMITER :
*BUS_DELIMITER []
*T_UNIT 1 NS
*C_UNIT 1 PF
*R_UNIT 1 OHM
*L_UNIT 1 HENRY

*NAME_MAP
*3 clk_i
*4 en_ifetch_i[0]
*5 en_ifetch_i[1]
*6 en_ifetch_i[2]
*7 en_ifetch_i[3]
*8 rst_ni
*9 tl_i[0]
*10 tl_i[100]
*11 tl_i[101]
*12 tl_i[102]
*13 tl_i[103]
*14 tl_i[104]
*15 tl_i[105]
*16 tl_i[106]
*17 tl_i[107]
*18 tl_i[108]
*19 tl_i[109]
*20 tl_i[10]
*21 tl_i[110]
*22 tl_i[111]
*23 tl_i[112]
*24 tl_i[113]
*25 tl_i[11]
*26 tl_i[12]
*27 tl_i[13]
*28 tl_i[14]
*29 tl_i[15]
*30 tl_i[16]
*31 tl_i[17]
*32 tl_i[18]
*33 tl_i[19]
*34 tl_i[1]
*35 tl_i[20]
*36 tl_i[21]
*37 tl_i[22]
*38 tl_i[23]
*39 tl_i[24]
*40 tl_i[25]
*41 tl_i[26]
*42 tl_i[27]
*43 tl_i[28]
*44 tl_i[29]
*45 tl_i[2]
*46 tl_i[30]
*47 tl_i[31]
*48 tl_i[32]
*49 tl_i[33]
*50 tl_i[34]
*51 tl_i[35]
*52 tl_i[36]
*53 tl_i[37]
*54 tl_i[38]
*55 tl_i[39]
*56 tl_i[3]
*57 tl_i[40]
*58 tl_i[41]
*59 tl_i[42]
*60 tl_i[43]
*61 tl_i[44]
*62 tl_i[45]
*63 tl_i[46]
*64 tl_i[47]
*65 tl_i[48]
*66 tl_i[49]
*67 tl_i[4]
*68 tl_i[50]
*69 tl_i[51]
*70 tl_i[52]
*71 tl_i[53]
*72 tl_i[54]
*73 tl_i[55]
*74 tl_i[56]
*75 tl_i[57]
*76 tl_i[58]
*77 tl_i[59]
*78 tl_i[5]
*79 tl_i[60]
*80 tl_i[61]
*81 tl_i[62]
*82 tl_i[63]
*83 tl_i[64]
*84 tl_i[65]
*85 tl_i[66]
*86 tl_i[67]
*87 tl_i[68]
*88 tl_i[69]
*89 tl_i[6]
*90 tl_i[70]
*91 tl_i[71]
*92 tl_i[72]
*93 tl_i[73]
*94 tl_i[74]
*95 tl_i[75]
*96 tl_i[76]
*97 tl_i[77]
*98 tl_i[78]
*99 tl_i[79]
*100 tl_i[7]
*101 tl_i[80]
*102 tl_i[81]
*103 tl_i[82]
*104 tl_i[83]
*105 tl_i[84]
*106 tl_i[85]
*107 tl_i[86]
*108 tl_i[87]
*109 tl_i[88]
*110 tl_i[89]
*111 tl_i[8]
*112 tl_i[90]
*113 tl_i[91]
*114 tl_i[92]
*115 tl_i[93]
*116 tl_i[94]
*117 tl_i[95]
*118 tl_i[96]
*119 tl_i[97]
*120 tl_i[98]
*121 tl_i[99]
*122 tl_i[9]
*123 tl_o[0]
*124 net184
*125 net185
*126 net186
*127 net187
*128 net188
*129 net189
*130 tl_o[16]
*131 tl_o[17]
*132 tl_o[18]
*133 tl_o[19]
*134 tl_o[1]
*135 tl_o[20]
*136 tl_o[21]
*137 tl_o[22]
*138 tl_o[23]
*139 tl_o[24]
*140 tl_o[25]
*141 tl_o[26]
*142 tl_o[27]
*143 tl_o[28]
*144 tl_o[29]
*145 net
*146 tl_o[30]
*147 tl_o[31]
*148 tl_o[32]
*149 tl_o[33]
*150 tl_o[34]
*151 tl_o[35]
*152 tl_o[36]
*153 tl_o[37]
*154 tl_o[38]
*155 tl_o[39]
*156 tl_o[3]
*157 tl_o[40]
*158 tl_o[41]
*159 tl_o[42]
*160 tl_o[43]
*161 tl_o[44]
*162 tl_o[45]
*163 tl_o[46]
*164 tl_o[47]
*165 net190
*166 tl_o[49]
*167 net180
*168 tl_o[50]
*169 tl_o[51]
*170 tl_o[52]
*171 tl_o[53]
*172 tl_o[54]
*173 tl_o[55]
*174 tl_o[56]
*175 tl_o[57]
*176 tl_o[58]
*177 net191
*178 tl_o[5]
*179 net192
*180 net193
*181 tl_o[62]
*182 net194
*183 net195
*184 tl_o[65]
*185 net181
*186 tl_o[7]
*187 net182
*188 net183
*189 _000_
*190 _001_
*191 _002_
*192 _003_
*193 _004_
*194 _005_
*195 _006_
*196 _007_
*197 _008_
*198 _009_
*199 _010_
*200 _011_
*201 _012_
*202 _013_
*203 _014_
*204 _015_
*205 _016_
*206 _017_
*207 _018_
*208 _019_
*209 _020_
*210 _021_
*211 _022_
*212 _023_
*213 _024_
*214 _025_
*215 _026_
*216 _027_
*217 _028_
*218 _029_
*219 _030_
*220 _031_
*221 _032_
*222 _033_
*223 _034_
*224 _035_
*225 _036_
*226 _037_
*227 _038_
*228 _039_
*229 _040_
*230 _041_
*231 _042_
*232 _043_
*233 _044_
*234 _045_
*235 _046_
*236 _047_
*237 _048_
*238 _049_
*239 _050_
*240 _051_
*241 _052_
*242 _053_
*243 _054_
*244 _055_
*245 _056_
*246 _057_
*247 _058_
*248 _059_
*249 _060_
*250 _061_
*251 _062_
*252 _063_
*253 _064_
*254 _065_
*255 _066_
*256 _067_
*257 _068_
*258 _069_
*259 _070_
*260 _071_
*261 _072_
*262 _073_
*263 _074_
*264 _075_
*265 _076_
*266 _077_
*267 _078_
*268 _079_
*269 _080_
*270 _081_
*271 _082_
*272 _083_
*273 _084_
*274 _085_
*275 _086_
*276 _087_
*277 _088_
*278 _089_
*279 _090_
*280 _091_
*281 _092_
*282 _093_
*283 _094_
*284 _095_
*285 _096_
*286 _097_
*287 _098_
*288 _099_
*289 _100_
*290 _101_
*291 _102_
*292 _103_
*293 _104_
*294 _105_
*295 _106_
*296 _107_
*297 _108_
*298 _109_
*299 _110_
*300 _111_
*301 _112_
*302 _113_
*303 _114_
*304 _115_
*305 _116_
*306 _117_
*307 _118_
*308 _119_
*309 _120_
*310 _121_
*311 _122_
*312 _123_
*313 _124_
*314 _125_
*315 _126_
*316 _127_
*317 _128_
*318 _129_
*319 _130_
*320 _131_
*321 _132_
*322 _133_
*323 _134_
*324 _135_
*325 _136_
*326 _137_
*327 _138_
*328 _139_
*329 _140_
*330 _141_
*331 _142_
*332 _143_
*333 _144_
*334 _145_
*335 _146_
*336 _147_
*337 _148_
*338 _149_
*339 _150_
*340 _151_
*341 _152_
*342 _153_
*343 _154_
*344 _155_
*345 _156_
*346 _157_
*347 _158_
*348 _159_
*349 _160_
*350 _161_
*351 _162_
*352 _163_
*353 _164_
*354 _165_
*355 _166_
*356 _167_
*357 _168_
*358 _169_
*359 _170_
*360 _171_
*361 _172_
*362 _173_
*363 _174_
*364 _175_
*365 addr\[0\]
*366 addr\[1\]
*367 addr\[2\]
*368 addr\[3\]
*369 addr\[4\]
*370 addr\[5\]
*371 addr\[6\]
*372 addr\[7\]
*373 clk_i_regs
*374 clknet_0_clk_i
*375 clknet_0_clk_i_regs
*376 clknet_1_0__leaf_clk_i
*377 clknet_1_1__leaf_clk_i
*378 clknet_2_0__leaf_clk_i_regs
*379 clknet_2_1__leaf_clk_i_regs
*380 clknet_2_2__leaf_clk_i_regs
*381 clknet_2_3__leaf_clk_i_regs
*382 net1
*383 net10
*384 net100
*385 net101
*386 net102
*387 net103
*388 net104
*389 net105
*390 net106
*391 net107
*392 net108
*393 net109
*394 net11
*395 net110
*396 net111
*397 net112
*398 net113
*399 net114
*400 net115
*401 net116
*402 net117
*403 net118
*404 net119
*405 net12
*406 net120
*407 net121
*408 net122
*409 net123
*410 net124
*411 net125
*412 net126
*413 net127
*414 net128
*415 net129
*416 net13
*417 net130
*418 net131
*419 net132
*420 net133
*421 net134
*422 net135
*423 net136
*424 net137
*425 net138
*426 net139
*427 net14
*428 net140
*429 net141
*430 net142
*431 net143
*432 net144
*433 net145
*434 net146
*435 net147
*436 net148
*437 net149
*438 net15
*439 net150
*440 net151
*441 net152
*442 net153
*443 net154
*444 net155
*445 net156
*446 net157
*447 net158
*448 net159
*449 net16
*450 net160
*451 net161
*452 net162
*453 net163
*454 net164
*455 net165
*456 net166
*457 net167
*458 net168
*459 net169
*460 net17
*461 net170
*462 net171
*463 net172
*464 net173
*465 net174
*466 net175
*467 net176
*468 net177
*469 net178
*470 net179
*471 net18
*472 net19
*473 net2
*474 net20
*475 net21
*476 net22
*477 net23
*478 net24
*479 net25
*480 net26
*481 net27
*482 net28
*483 net29
*484 net3
*485 net30
*486 net31
*487 net32
*488 net33
*489 net34
*490 net35
*491 net36
*492 net37
*493 net38
*494 net39
*495 net4
*496 net40
*497 net41
*498 net42
*499 net43
*500 net44
*501 net45
*502 net46
*503 net47
*504 net48
*505 net49
*506 net5
*507 net50
*508 net51
*509 net52
*510 net53
*511 net54
*512 net55
*513 net56
*514 net57
*515 net58
*516 net59
*517 net6
*518 net60
*519 net61
*520 net62
*521 net63
*522 net64
*523 net65
*524 net66
*525 net67
*526 net68
*527 net69
*528 net7
*529 net70
*530 net71
*531 net72
*532 net73
*533 net74
*534 net75
*535 net76
*536 net77
*537 net78
*538 net79
*539 net8
*540 net80
*541 net81
*542 net82
*543 net83
*544 net84
*545 net85
*546 net86
*547 net87
*548 net88
*549 net89
*550 net9
*551 net90
*552 net91
*553 net92
*554 net93
*555 net94
*556 net95
*557 net96
*558 net97
*559 net98
*560 net99
*561 rdata\[0\]
*562 rdata\[10\]
*563 rdata\[11\]
*564 rdata\[12\]
*565 rdata\[13\]
*566 rdata\[14\]
*567 rdata\[15\]
*568 rdata\[16\]
*569 rdata\[17\]
*570 rdata\[18\]
*571 rdata\[19\]
*572 rdata\[1\]
*573 rdata\[20\]
*574 rdata\[21\]
*575 rdata\[22\]
*576 rdata\[23\]
*577 rdata\[24\]
*578 rdata\[25\]
*579 rdata\[26\]
*580 rdata\[27\]
*581 rdata\[28\]
*582 rdata\[29\]
*583 rdata\[2\]
*584 rdata\[30\]
*585 rdata\[31\]
*586 rdata\[3\]
*587 rdata\[4\]
*588 rdata\[5\]
*589 rdata\[6\]
*590 rdata\[7\]
*591 rdata\[8\]
*592 rdata\[9\]
*593 rvalid
*594 u_adapt\.d_valid
*595 u_adapt\.reqfifo_rvalid
*596 u_adapt\.sramreqfifo_wvalid
*597 u_adapt\.u_reqfifo\.gen_singleton_fifo\.full_d
*598 u_adapt\.u_reqfifo\.gen_singleton_fifo\.rdata_int\[0\]
*599 u_adapt\.u_reqfifo\.gen_singleton_fifo\.rdata_int\[10\]
*600 u_adapt\.u_reqfifo\.gen_singleton_fifo\.rdata_int\[11\]
*601 u_adapt\.u_reqfifo\.gen_singleton_fifo\.rdata_int\[12\]
*602 u_adapt\.u_reqfifo\.gen_singleton_fifo\.rdata_int\[13\]
*603 u_adapt\.u_reqfifo\.gen_singleton_fifo\.rdata_int\[14\]
*604 u_adapt\.u_reqfifo\.gen_singleton_fifo\.rdata_int\[15\]
*605 u_adapt\.u_reqfifo\.gen_singleton_fifo\.rdata_int\[1\]
*606 u_adapt\.u_reqfifo\.gen_singleton_fifo\.rdata_int\[2\]
*607 u_adapt\.u_reqfifo\.gen_singleton_fifo\.rdata_int\[3\]
*608 u_adapt\.u_reqfifo\.gen_singleton_fifo\.rdata_int\[4\]
*609 u_adapt\.u_reqfifo\.gen_singleton_fifo\.rdata_int\[5\]
*610 u_adapt\.u_reqfifo\.gen_singleton_fifo\.rdata_int\[6\]
*611 u_adapt\.u_reqfifo\.gen_singleton_fifo\.rdata_int\[7\]
*612 u_adapt\.u_reqfifo\.gen_singleton_fifo\.rdata_int\[8\]
*613 u_adapt\.u_reqfifo\.gen_singleton_fifo\.rdata_int\[9\]
*614 u_adapt\.u_rspfifo\.depth_o
*615 u_adapt\.u_rspfifo\.gen_singleton_fifo\.full_d
*616 u_adapt\.u_rspfifo\.gen_singleton_fifo\.storage\[10\]
*617 u_adapt\.u_rspfifo\.gen_singleton_fifo\.storage\[11\]
*618 u_adapt\.u_rspfifo\.gen_singleton_fifo\.storage\[12\]
*619 u_adapt\.u_rspfifo\.gen_singleton_fifo\.storage\[13\]
*620 u_adapt\.u_rspfifo\.gen_singleton_fifo\.storage\[14\]
*621 u_adapt\.u_rspfifo\.gen_singleton_fifo\.storage\[15\]
*622 u_adapt\.u_rspfifo\.gen_singleton_fifo\.storage\[16\]
*623 u_adapt\.u_rspfifo\.gen_singleton_fifo\.storage\[17\]
*624 u_adapt\.u_rspfifo\.gen_singleton_fifo\.storage\[18\]
*625 u_adapt\.u_rspfifo\.gen_singleton_fifo\.storage\[19\]
*626 u_adapt\.u_rspfifo\.gen_singleton_fifo\.storage\[20\]
*627 u_adapt\.u_rspfifo\.gen_singleton_fifo\.storage\[21\]
*628 u_adapt\.u_rspfifo\.gen_singleton_fifo\.storage\[22\]
*629 u_adapt\.u_rspfifo\.gen_singleton_fifo\.storage\[23\]
*630 u_adapt\.u_rspfifo\.gen_singleton_fifo\.storage\[24\]
*631 u_adapt\.u_rspfifo\.gen_singleton_fifo\.storage\[25\]
*632 u_adapt\.u_rspfifo\.gen_singleton_fifo\.storage\[26\]
*633 u_adapt\.u_rspfifo\.gen_singleton_fifo\.storage\[27\]
*634 u_adapt\.u_rspfifo\.gen_singleton_fifo\.storage\[28\]
*635 u_adapt\.u_rspfifo\.gen_singleton_fifo\.storage\[29\]
*636 u_adapt\.u_rspfifo\.gen_singleton_fifo\.storage\[30\]
*637 u_adapt\.u_rspfifo\.gen_singleton_fifo\.storage\[31\]
*638 u_adapt\.u_rspfifo\.gen_singleton_fifo\.storage\[32\]
*639 u_adapt\.u_rspfifo\.gen_singleton_fifo\.storage\[33\]
*640 u_adapt\.u_rspfifo\.gen_singleton_fifo\.storage\[34\]
*641 u_adapt\.u_rspfifo\.gen_singleton_fifo\.storage\[35\]
*642 u_adapt\.u_rspfifo\.gen_singleton_fifo\.storage\[36\]
*643 u_adapt\.u_rspfifo\.gen_singleton_fifo\.storage\[37\]
*644 u_adapt\.u_rspfifo\.gen_singleton_fifo\.storage\[38\]
*645 u_adapt\.u_rspfifo\.gen_singleton_fifo\.storage\[39\]
*646 u_adapt\.u_rspfifo\.gen_singleton_fifo\.storage\[8\]
*647 u_adapt\.u_rspfifo\.gen_singleton_fifo\.storage\[9\]
*648 u_adapt\.u_sramreqfifo\.depth_o
*649 u_adapt\.u_sramreqfifo\.gen_singleton_fifo\.full_d
*650 u_adapt\.u_sramreqfifo\.gen_singleton_fifo\.rdata_int\[1\]
*651 u_adapt\.u_sramreqfifo\.gen_singleton_fifo\.rdata_int\[2\]
*652 u_adapt\.u_sramreqfifo\.gen_singleton_fifo\.rdata_int\[3\]
*653 u_adapt\.u_sramreqfifo\.gen_singleton_fifo\.rdata_int\[4\]
*654 u_adapt\.wdata_combined\[0\]
*655 u_adapt\.wdata_combined\[10\]
*656 u_adapt\.wdata_combined\[11\]
*657 u_adapt\.wdata_combined\[12\]
*658 u_adapt\.wdata_combined\[13\]
*659 u_adapt\.wdata_combined\[14\]
*660 u_adapt\.wdata_combined\[15\]
*661 u_adapt\.wdata_combined\[16\]
*662 u_adapt\.wdata_combined\[17\]
*663 u_adapt\.wdata_combined\[18\]
*664 u_adapt\.wdata_combined\[19\]
*665 u_adapt\.wdata_combined\[1\]
*666 u_adapt\.wdata_combined\[20\]
*667 u_adapt\.wdata_combined\[21\]
*668 u_adapt\.wdata_combined\[22\]
*669 u_adapt\.wdata_combined\[23\]
*670 u_adapt\.wdata_combined\[24\]
*671 u_adapt\.wdata_combined\[25\]
*672 u_adapt\.wdata_combined\[26\]
*673 u_adapt\.wdata_combined\[27\]
*674 u_adapt\.wdata_combined\[28\]
*675 u_adapt\.wdata_combined\[29\]
*676 u_adapt\.wdata_combined\[2\]
*677 u_adapt\.wdata_combined\[30\]
*678 u_adapt\.wdata_combined\[31\]
*679 u_adapt\.wdata_combined\[3\]
*680 u_adapt\.wdata_combined\[4\]
*681 u_adapt\.wdata_combined\[5\]
*682 u_adapt\.wdata_combined\[6\]
*683 u_adapt\.wdata_combined\[7\]
*684 u_adapt\.wdata_combined\[8\]
*685 u_adapt\.wdata_combined\[9\]
*686 u_mem\.cen
*687 u_mem\.gwen
*688 FILLER_0_104
*689 FILLER_0_1056
*690 FILLER_0_1058
*691 FILLER_0_1119
*692 FILLER_0_1121
*693 FILLER_0_1154
*694 FILLER_0_1174
*695 FILLER_0_1192
*696 FILLER_0_1226
*697 FILLER_0_1260
*698 FILLER_0_1294
*699 FILLER_0_1328
*700 FILLER_0_1362
*701 FILLER_0_138
*702 FILLER_0_1396
*703 FILLER_0_1430
*704 FILLER_0_1464
*705 FILLER_0_1498
*706 FILLER_0_1532
*707 FILLER_0_1566
*708 FILLER_0_1600
*709 FILLER_0_1634
*710 FILLER_0_1668
*711 FILLER_0_1702
*712 FILLER_0_172
*713 FILLER_0_1736
*714 FILLER_0_1770
*715 FILLER_0_1804
*716 FILLER_0_1838
*717 FILLER_0_1872
*718 FILLER_0_1906
*719 FILLER_0_2
*720 FILLER_0_206
*721 FILLER_0_240
*722 FILLER_0_274
*723 FILLER_0_308
*724 FILLER_0_342
*725 FILLER_0_36
*726 FILLER_0_376
*727 FILLER_0_410
*728 FILLER_0_444
*729 FILLER_0_478
*730 FILLER_0_512
*731 FILLER_0_546
*732 FILLER_0_580
*733 FILLER_0_614
*734 FILLER_0_648
*735 FILLER_0_682
*736 FILLER_0_70
*737 FILLER_0_716
*738 FILLER_0_750
*739 FILLER_0_784
*740 FILLER_0_818
*741 FILLER_0_834
*742 FILLER_0_881
*743 FILLER_0_883
*744 FILLER_0_916
*745 FILLER_0_920
*746 FILLER_0_950
*747 FILLER_0_983
*748 FILLER_0_985
*749 FILLER_0_988
*750 FILLER_0_990
*751 FILLER_100_1000
*752 FILLER_100_1002
*753 FILLER_100_101
*754 FILLER_100_107
*755 FILLER_100_123
*756 FILLER_100_1815
*757 FILLER_100_1847
*758 FILLER_100_1850
*759 FILLER_100_1914
*760 FILLER_100_1920
*761 FILLER_100_1936
*762 FILLER_100_2
*763 FILLER_100_34
*764 FILLER_100_37
*765 FILLER_100_937
*766 FILLER_100_969
*767 FILLER_100_972
*768 FILLER_100_988
*769 FILLER_100_996
*770 FILLER_101_1001
*771 FILLER_101_104
*772 FILLER_101_120
*773 FILLER_101_124
*774 FILLER_101_1815
*775 FILLER_101_1879
*776 FILLER_101_1885
*777 FILLER_101_1917
*778 FILLER_101_1933
*779 FILLER_101_1937
*780 FILLER_101_2
*781 FILLER_101_66
*782 FILLER_101_72
*783 FILLER_101_937
*784 FILLER_102_101
*785 FILLER_102_107
*786 FILLER_102_123
*787 FILLER_102_1815
*788 FILLER_102_1847
*789 FILLER_102_1850
*790 FILLER_102_1914
*791 FILLER_102_1920
*792 FILLER_102_1936
*793 FILLER_102_2
*794 FILLER_102_34
*795 FILLER_102_37
*796 FILLER_102_963
*797 FILLER_102_967
*798 FILLER_102_969
*799 FILLER_102_972
*800 FILLER_102_976
*801 FILLER_103_1001
*802 FILLER_103_104
*803 FILLER_103_120
*804 FILLER_103_124
*805 FILLER_103_1815
*806 FILLER_103_1879
*807 FILLER_103_1885
*808 FILLER_103_1917
*809 FILLER_103_1933
*810 FILLER_103_1937
*811 FILLER_103_36
*812 FILLER_103_68
*813 FILLER_103_72
*814 FILLER_103_937
*815 FILLER_104_1000
*816 FILLER_104_1002
*817 FILLER_104_101
*818 FILLER_104_107
*819 FILLER_104_123
*820 FILLER_104_1815
*821 FILLER_104_1847
*822 FILLER_104_1850
*823 FILLER_104_1914
*824 FILLER_104_1920
*825 FILLER_104_1936
*826 FILLER_104_2
*827 FILLER_104_34
*828 FILLER_104_37
*829 FILLER_104_937
*830 FILLER_104_969
*831 FILLER_104_972
*832 FILLER_104_988
*833 FILLER_104_996
*834 FILLER_105_1001
*835 FILLER_105_104
*836 FILLER_105_120
*837 FILLER_105_124
*838 FILLER_105_1815
*839 FILLER_105_1879
*840 FILLER_105_1885
*841 FILLER_105_1901
*842 FILLER_105_1903
*843 FILLER_105_36
*844 FILLER_105_68
*845 FILLER_105_72
*846 FILLER_105_937
*847 FILLER_106_1022
*848 FILLER_106_1038
*849 FILLER_106_104
*850 FILLER_106_1056
*851 FILLER_106_1090
*852 FILLER_106_1124
*853 FILLER_106_1140
*854 FILLER_106_1158
*855 FILLER_106_1192
*856 FILLER_106_1226
*857 FILLER_106_1260
*858 FILLER_106_1294
*859 FILLER_106_1328
*860 FILLER_106_1362
*861 FILLER_106_138
*862 FILLER_106_1396
*863 FILLER_106_1430
*864 FILLER_106_1464
*865 FILLER_106_1498
*866 FILLER_106_1532
*867 FILLER_106_1566
*868 FILLER_106_1600
*869 FILLER_106_1634
*870 FILLER_106_1668
*871 FILLER_106_1672
*872 FILLER_106_1674
*873 FILLER_106_1690
*874 FILLER_106_1698
*875 FILLER_106_1702
*876 FILLER_106_172
*877 FILLER_106_1736
*878 FILLER_106_1770
*879 FILLER_106_1804
*880 FILLER_106_1838
*881 FILLER_106_1872
*882 FILLER_106_1906
*883 FILLER_106_2
*884 FILLER_106_206
*885 FILLER_106_240
*886 FILLER_106_274
*887 FILLER_106_308
*888 FILLER_106_356
*889 FILLER_106_36
*890 FILLER_106_372
*891 FILLER_106_376
*892 FILLER_106_410
*893 FILLER_106_444
*894 FILLER_106_478
*895 FILLER_106_512
*896 FILLER_106_546
*897 FILLER_106_580
*898 FILLER_106_614
*899 FILLER_106_648
*900 FILLER_106_682
*901 FILLER_106_70
*902 FILLER_106_716
*903 FILLER_106_750
*904 FILLER_106_784
*905 FILLER_106_818
*906 FILLER_106_852
*907 FILLER_106_886
*908 FILLER_106_920
*909 FILLER_106_954
*910 FILLER_106_988
*911 FILLER_107_1046
*912 FILLER_107_1052
*913 FILLER_107_1116
*914 FILLER_107_1122
*915 FILLER_107_1186
*916 FILLER_107_1192
*917 FILLER_107_1256
*918 FILLER_107_1262
*919 FILLER_107_1326
*920 FILLER_107_1332
*921 FILLER_107_136
*922 FILLER_107_1396
*923 FILLER_107_1402
*924 FILLER_107_142
*925 FILLER_107_1466
*926 FILLER_107_1472
*927 FILLER_107_1488
*928 FILLER_107_1504
*929 FILLER_107_1536
*930 FILLER_107_1542
*931 FILLER_107_1606
*932 FILLER_107_1612
*933 FILLER_107_1628
*934 FILLER_107_1665
*935 FILLER_107_1673
*936 FILLER_107_1677
*937 FILLER_107_1679
*938 FILLER_107_1682
*939 FILLER_107_1746
*940 FILLER_107_1752
*941 FILLER_107_1816
*942 FILLER_107_1822
*943 FILLER_107_1886
*944 FILLER_107_1892
*945 FILLER_107_1900
*946 FILLER_107_206
*947 FILLER_107_212
*948 FILLER_107_244
*949 FILLER_107_260
*950 FILLER_107_264
*951 FILLER_107_266
*952 FILLER_107_272
*953 FILLER_107_282
*954 FILLER_107_346
*955 FILLER_107_352
*956 FILLER_107_36
*957 FILLER_107_416
*958 FILLER_107_422
*959 FILLER_107_486
*960 FILLER_107_492
*961 FILLER_107_556
*962 FILLER_107_562
*963 FILLER_107_626
*964 FILLER_107_632
*965 FILLER_107_68
*966 FILLER_107_696
*967 FILLER_107_702
*968 FILLER_107_72
*969 FILLER_107_766
*970 FILLER_107_772
*971 FILLER_107_836
*972 FILLER_107_842
*973 FILLER_107_858
*974 FILLER_107_866
*975 FILLER_107_896
*976 FILLER_107_904
*977 FILLER_107_908
*978 FILLER_107_912
*979 FILLER_107_976
*980 FILLER_107_982
*981 FILLER_108_101
*982 FILLER_108_1011
*983 FILLER_108_1017
*984 FILLER_108_107
*985 FILLER_108_1081
*986 FILLER_108_1087
*987 FILLER_108_1151
*988 FILLER_108_1157
*989 FILLER_108_1221
*990 FILLER_108_1227
*991 FILLER_108_1291
*992 FILLER_108_1297
*993 FILLER_108_1361
*994 FILLER_108_1367
*995 FILLER_108_1431
*996 FILLER_108_1437
*997 FILLER_108_1501
*998 FILLER_108_1507
*999 FILLER_108_1571
*1000 FILLER_108_1577
*1001 FILLER_108_1641
*1002 FILLER_108_1652
*1003 FILLER_108_1684
*1004 FILLER_108_1700
*1005 FILLER_108_1708
*1006 FILLER_108_171
*1007 FILLER_108_1712
*1008 FILLER_108_1714
*1009 FILLER_108_1717
*1010 FILLER_108_177
*1011 FILLER_108_1781
*1012 FILLER_108_1787
*1013 FILLER_108_1851
*1014 FILLER_108_1857
*1015 FILLER_108_1889
*1016 FILLER_108_1927
*1017 FILLER_108_193
*1018 FILLER_108_1935
*1019 FILLER_108_1937
*1020 FILLER_108_2
*1021 FILLER_108_201
*1022 FILLER_108_218
*1023 FILLER_108_234
*1024 FILLER_108_242
*1025 FILLER_108_244
*1026 FILLER_108_276
*1027 FILLER_108_308
*1028 FILLER_108_312
*1029 FILLER_108_314
*1030 FILLER_108_317
*1031 FILLER_108_34
*1032 FILLER_108_37
*1033 FILLER_108_381
*1034 FILLER_108_387
*1035 FILLER_108_451
*1036 FILLER_108_457
*1037 FILLER_108_521
*1038 FILLER_108_527
*1039 FILLER_108_591
*1040 FILLER_108_597
*1041 FILLER_108_661
*1042 FILLER_108_667
*1043 FILLER_108_731
*1044 FILLER_108_737
*1045 FILLER_108_801
*1046 FILLER_108_807
*1047 FILLER_108_871
*1048 FILLER_108_877
*1049 FILLER_108_941
*1050 FILLER_108_947
*1051 FILLER_109_1046
*1052 FILLER_109_1052
*1053 FILLER_109_1116
*1054 FILLER_109_1122
*1055 FILLER_109_1186
*1056 FILLER_109_1192
*1057 FILLER_109_1256
*1058 FILLER_109_1262
*1059 FILLER_109_1326
*1060 FILLER_109_1332
*1061 FILLER_109_136
*1062 FILLER_109_1396
*1063 FILLER_109_1402
*1064 FILLER_109_142
*1065 FILLER_109_1466
*1066 FILLER_109_1472
*1067 FILLER_109_1480
*1068 FILLER_109_1484
*1069 FILLER_109_1486
*1070 FILLER_109_1502
*1071 FILLER_109_1534
*1072 FILLER_109_1538
*1073 FILLER_109_1542
*1074 FILLER_109_1550
*1075 FILLER_109_1554
*1076 FILLER_109_1556
*1077 FILLER_109_1572
*1078 FILLER_109_1604
*1079 FILLER_109_1608
*1080 FILLER_109_1612
*1081 FILLER_109_1616
*1082 FILLER_109_1647
*1083 FILLER_109_1663
*1084 FILLER_109_1682
*1085 FILLER_109_1746
*1086 FILLER_109_1752
*1087 FILLER_109_1816
*1088 FILLER_109_1822
*1089 FILLER_109_1886
*1090 FILLER_109_1892
*1091 FILLER_109_1900
*1092 FILLER_109_206
*1093 FILLER_109_212
*1094 FILLER_109_220
*1095 FILLER_109_236
*1096 FILLER_109_244
*1097 FILLER_109_248
*1098 FILLER_109_250
*1099 FILLER_109_287
*1100 FILLER_109_319
*1101 FILLER_109_335
*1102 FILLER_109_343
*1103 FILLER_109_347
*1104 FILLER_109_349
*1105 FILLER_109_352
*1106 FILLER_109_416
*1107 FILLER_109_422
*1108 FILLER_109_486
*1109 FILLER_109_492
*1110 FILLER_109_556
*1111 FILLER_109_562
*1112 FILLER_109_626
*1113 FILLER_109_632
*1114 FILLER_109_696
*1115 FILLER_109_702
*1116 FILLER_109_72
*1117 FILLER_109_766
*1118 FILLER_109_772
*1119 FILLER_109_836
*1120 FILLER_109_842
*1121 FILLER_109_906
*1122 FILLER_109_912
*1123 FILLER_109_976
*1124 FILLER_109_982
*1125 FILLER_10_101
*1126 FILLER_10_1013
*1127 FILLER_10_107
*1128 FILLER_10_1094
*1129 FILLER_10_1096
*1130 FILLER_10_1153
*1131 FILLER_10_1183
*1132 FILLER_10_1215
*1133 FILLER_10_1223
*1134 FILLER_10_1227
*1135 FILLER_10_1291
*1136 FILLER_10_1297
*1137 FILLER_10_1329
*1138 FILLER_10_1337
*1139 FILLER_10_1364
*1140 FILLER_10_1367
*1141 FILLER_10_1431
*1142 FILLER_10_1437
*1143 FILLER_10_1501
*1144 FILLER_10_1507
*1145 FILLER_10_1523
*1146 FILLER_10_1531
*1147 FILLER_10_1533
*1148 FILLER_10_1539
*1149 FILLER_10_1571
*1150 FILLER_10_1577
*1151 FILLER_10_1641
*1152 FILLER_10_1647
*1153 FILLER_10_171
*1154 FILLER_10_1711
*1155 FILLER_10_1717
*1156 FILLER_10_177
*1157 FILLER_10_1781
*1158 FILLER_10_1787
*1159 FILLER_10_1851
*1160 FILLER_10_1857
*1161 FILLER_10_1921
*1162 FILLER_10_1927
*1163 FILLER_10_1935
*1164 FILLER_10_1937
*1165 FILLER_10_2
*1166 FILLER_10_241
*1167 FILLER_10_247
*1168 FILLER_10_311
*1169 FILLER_10_317
*1170 FILLER_10_34
*1171 FILLER_10_349
*1172 FILLER_10_365
*1173 FILLER_10_37
*1174 FILLER_10_373
*1175 FILLER_10_382
*1176 FILLER_10_384
*1177 FILLER_10_387
*1178 FILLER_10_451
*1179 FILLER_10_457
*1180 FILLER_10_521
*1181 FILLER_10_527
*1182 FILLER_10_591
*1183 FILLER_10_597
*1184 FILLER_10_661
*1185 FILLER_10_667
*1186 FILLER_10_731
*1187 FILLER_10_737
*1188 FILLER_10_788
*1189 FILLER_10_796
*1190 FILLER_10_807
*1191 FILLER_110_101
*1192 FILLER_110_1011
*1193 FILLER_110_1017
*1194 FILLER_110_107
*1195 FILLER_110_1081
*1196 FILLER_110_1087
*1197 FILLER_110_1151
*1198 FILLER_110_1157
*1199 FILLER_110_1221
*1200 FILLER_110_1227
*1201 FILLER_110_1291
*1202 FILLER_110_1297
*1203 FILLER_110_1361
*1204 FILLER_110_1367
*1205 FILLER_110_1383
*1206 FILLER_110_1391
*1207 FILLER_110_1426
*1208 FILLER_110_1434
*1209 FILLER_110_1437
*1210 FILLER_110_1453
*1211 FILLER_110_1457
*1212 FILLER_110_1493
*1213 FILLER_110_1507
*1214 FILLER_110_1571
*1215 FILLER_110_1577
*1216 FILLER_110_1593
*1217 FILLER_110_1624
*1218 FILLER_110_1628
*1219 FILLER_110_1630
*1220 FILLER_110_1636
*1221 FILLER_110_1647
*1222 FILLER_110_1651
*1223 FILLER_110_1653
*1224 FILLER_110_1689
*1225 FILLER_110_1705
*1226 FILLER_110_171
*1227 FILLER_110_1713
*1228 FILLER_110_1717
*1229 FILLER_110_177
*1230 FILLER_110_1781
*1231 FILLER_110_1787
*1232 FILLER_110_1851
*1233 FILLER_110_1857
*1234 FILLER_110_1889
*1235 FILLER_110_1927
*1236 FILLER_110_193
*1237 FILLER_110_1935
*1238 FILLER_110_1937
*1239 FILLER_110_2
*1240 FILLER_110_201
*1241 FILLER_110_205
*1242 FILLER_110_207
*1243 FILLER_110_223
*1244 FILLER_110_239
*1245 FILLER_110_243
*1246 FILLER_110_247
*1247 FILLER_110_249
*1248 FILLER_110_313
*1249 FILLER_110_332
*1250 FILLER_110_34
*1251 FILLER_110_364
*1252 FILLER_110_366
*1253 FILLER_110_37
*1254 FILLER_110_382
*1255 FILLER_110_384
*1256 FILLER_110_387
*1257 FILLER_110_418
*1258 FILLER_110_450
*1259 FILLER_110_454
*1260 FILLER_110_457
*1261 FILLER_110_521
*1262 FILLER_110_527
*1263 FILLER_110_591
*1264 FILLER_110_597
*1265 FILLER_110_661
*1266 FILLER_110_667
*1267 FILLER_110_731
*1268 FILLER_110_737
*1269 FILLER_110_801
*1270 FILLER_110_812
*1271 FILLER_110_844
*1272 FILLER_110_860
*1273 FILLER_110_868
*1274 FILLER_110_872
*1275 FILLER_110_874
*1276 FILLER_110_877
*1277 FILLER_110_941
*1278 FILLER_110_947
*1279 FILLER_111_1046
*1280 FILLER_111_1052
*1281 FILLER_111_1116
*1282 FILLER_111_1122
*1283 FILLER_111_1186
*1284 FILLER_111_1192
*1285 FILLER_111_1256
*1286 FILLER_111_1262
*1287 FILLER_111_1326
*1288 FILLER_111_1332
*1289 FILLER_111_136
*1290 FILLER_111_1364
*1291 FILLER_111_1368
*1292 FILLER_111_1370
*1293 FILLER_111_1376
*1294 FILLER_111_1392
*1295 FILLER_111_1402
*1296 FILLER_111_142
*1297 FILLER_111_1434
*1298 FILLER_111_1438
*1299 FILLER_111_1445
*1300 FILLER_111_1461
*1301 FILLER_111_1469
*1302 FILLER_111_1472
*1303 FILLER_111_1536
*1304 FILLER_111_1542
*1305 FILLER_111_1574
*1306 FILLER_111_1590
*1307 FILLER_111_1598
*1308 FILLER_111_1602
*1309 FILLER_111_1604
*1310 FILLER_111_1612
*1311 FILLER_111_1657
*1312 FILLER_111_1673
*1313 FILLER_111_1677
*1314 FILLER_111_1679
*1315 FILLER_111_1682
*1316 FILLER_111_1746
*1317 FILLER_111_1752
*1318 FILLER_111_1816
*1319 FILLER_111_1822
*1320 FILLER_111_1886
*1321 FILLER_111_1892
*1322 FILLER_111_1900
*1323 FILLER_111_206
*1324 FILLER_111_227
*1325 FILLER_111_243
*1326 FILLER_111_252
*1327 FILLER_111_273
*1328 FILLER_111_282
*1329 FILLER_111_303
*1330 FILLER_111_335
*1331 FILLER_111_343
*1332 FILLER_111_347
*1333 FILLER_111_349
*1334 FILLER_111_352
*1335 FILLER_111_36
*1336 FILLER_111_416
*1337 FILLER_111_422
*1338 FILLER_111_428
*1339 FILLER_111_444
*1340 FILLER_111_452
*1341 FILLER_111_456
*1342 FILLER_111_486
*1343 FILLER_111_492
*1344 FILLER_111_494
*1345 FILLER_111_500
*1346 FILLER_111_532
*1347 FILLER_111_548
*1348 FILLER_111_556
*1349 FILLER_111_562
*1350 FILLER_111_626
*1351 FILLER_111_632
*1352 FILLER_111_68
*1353 FILLER_111_696
*1354 FILLER_111_702
*1355 FILLER_111_72
*1356 FILLER_111_766
*1357 FILLER_111_772
*1358 FILLER_111_780
*1359 FILLER_111_784
*1360 FILLER_111_786
*1361 FILLER_111_816
*1362 FILLER_111_832
*1363 FILLER_111_842
*1364 FILLER_111_858
*1365 FILLER_111_881
*1366 FILLER_111_897
*1367 FILLER_111_905
*1368 FILLER_111_909
*1369 FILLER_111_912
*1370 FILLER_111_976
*1371 FILLER_111_982
*1372 FILLER_112_101
*1373 FILLER_112_1011
*1374 FILLER_112_1017
*1375 FILLER_112_107
*1376 FILLER_112_1081
*1377 FILLER_112_1087
*1378 FILLER_112_1151
*1379 FILLER_112_1157
*1380 FILLER_112_1221
*1381 FILLER_112_1227
*1382 FILLER_112_1291
*1383 FILLER_112_1297
*1384 FILLER_112_1361
*1385 FILLER_112_1367
*1386 FILLER_112_1431
*1387 FILLER_112_1437
*1388 FILLER_112_1501
*1389 FILLER_112_1507
*1390 FILLER_112_1571
*1391 FILLER_112_1577
*1392 FILLER_112_1614
*1393 FILLER_112_1630
*1394 FILLER_112_1643
*1395 FILLER_112_1647
*1396 FILLER_112_1653
*1397 FILLER_112_1685
*1398 FILLER_112_1701
*1399 FILLER_112_1709
*1400 FILLER_112_171
*1401 FILLER_112_1713
*1402 FILLER_112_1717
*1403 FILLER_112_177
*1404 FILLER_112_1781
*1405 FILLER_112_1787
*1406 FILLER_112_1851
*1407 FILLER_112_1857
*1408 FILLER_112_1921
*1409 FILLER_112_1927
*1410 FILLER_112_1935
*1411 FILLER_112_1937
*1412 FILLER_112_2
*1413 FILLER_112_241
*1414 FILLER_112_247
*1415 FILLER_112_255
*1416 FILLER_112_259
*1417 FILLER_112_261
*1418 FILLER_112_267
*1419 FILLER_112_299
*1420 FILLER_112_317
*1421 FILLER_112_34
*1422 FILLER_112_37
*1423 FILLER_112_381
*1424 FILLER_112_387
*1425 FILLER_112_419
*1426 FILLER_112_435
*1427 FILLER_112_439
*1428 FILLER_112_445
*1429 FILLER_112_453
*1430 FILLER_112_457
*1431 FILLER_112_489
*1432 FILLER_112_505
*1433 FILLER_112_509
*1434 FILLER_112_511
*1435 FILLER_112_517
*1436 FILLER_112_527
*1437 FILLER_112_591
*1438 FILLER_112_597
*1439 FILLER_112_661
*1440 FILLER_112_667
*1441 FILLER_112_731
*1442 FILLER_112_737
*1443 FILLER_112_801
*1444 FILLER_112_821
*1445 FILLER_112_837
*1446 FILLER_112_874
*1447 FILLER_112_877
*1448 FILLER_112_941
*1449 FILLER_112_947
*1450 FILLER_113_1046
*1451 FILLER_113_1052
*1452 FILLER_113_1116
*1453 FILLER_113_1122
*1454 FILLER_113_1186
*1455 FILLER_113_1192
*1456 FILLER_113_1224
*1457 FILLER_113_1240
*1458 FILLER_113_1248
*1459 FILLER_113_1250
*1460 FILLER_113_1258
*1461 FILLER_113_1262
*1462 FILLER_113_1326
*1463 FILLER_113_1332
*1464 FILLER_113_1340
*1465 FILLER_113_136
*1466 FILLER_113_1372
*1467 FILLER_113_1388
*1468 FILLER_113_1396
*1469 FILLER_113_1402
*1470 FILLER_113_142
*1471 FILLER_113_1466
*1472 FILLER_113_1472
*1473 FILLER_113_1536
*1474 FILLER_113_1542
*1475 FILLER_113_1606
*1476 FILLER_113_1612
*1477 FILLER_113_1628
*1478 FILLER_113_1639
*1479 FILLER_113_1655
*1480 FILLER_113_1663
*1481 FILLER_113_1672
*1482 FILLER_113_1682
*1483 FILLER_113_1746
*1484 FILLER_113_1752
*1485 FILLER_113_1816
*1486 FILLER_113_1822
*1487 FILLER_113_1886
*1488 FILLER_113_1892
*1489 FILLER_113_1924
*1490 FILLER_113_1932
*1491 FILLER_113_1936
*1492 FILLER_113_206
*1493 FILLER_113_212
*1494 FILLER_113_251
*1495 FILLER_113_267
*1496 FILLER_113_275
*1497 FILLER_113_279
*1498 FILLER_113_282
*1499 FILLER_113_346
*1500 FILLER_113_352
*1501 FILLER_113_36
*1502 FILLER_113_416
*1503 FILLER_113_422
*1504 FILLER_113_486
*1505 FILLER_113_492
*1506 FILLER_113_556
*1507 FILLER_113_562
*1508 FILLER_113_626
*1509 FILLER_113_632
*1510 FILLER_113_68
*1511 FILLER_113_696
*1512 FILLER_113_702
*1513 FILLER_113_72
*1514 FILLER_113_766
*1515 FILLER_113_772
*1516 FILLER_113_788
*1517 FILLER_113_792
*1518 FILLER_113_794
*1519 FILLER_113_807
*1520 FILLER_113_839
*1521 FILLER_113_857
*1522 FILLER_113_859
*1523 FILLER_113_865
*1524 FILLER_113_897
*1525 FILLER_113_905
*1526 FILLER_113_909
*1527 FILLER_113_912
*1528 FILLER_113_976
*1529 FILLER_113_982
*1530 FILLER_114_1022
*1531 FILLER_114_104
*1532 FILLER_114_1056
*1533 FILLER_114_1090
*1534 FILLER_114_1132
*1535 FILLER_114_1136
*1536 FILLER_114_1146
*1537 FILLER_114_1154
*1538 FILLER_114_1158
*1539 FILLER_114_1192
*1540 FILLER_114_1226
*1541 FILLER_114_1260
*1542 FILLER_114_1294
*1543 FILLER_114_1302
*1544 FILLER_114_1306
*1545 FILLER_114_1308
*1546 FILLER_114_1317
*1547 FILLER_114_1325
*1548 FILLER_114_1328
*1549 FILLER_114_1362
*1550 FILLER_114_138
*1551 FILLER_114_1396
*1552 FILLER_114_1430
*1553 FILLER_114_1464
*1554 FILLER_114_1498
*1555 FILLER_114_1532
*1556 FILLER_114_1566
*1557 FILLER_114_1582
*1558 FILLER_114_1590
*1559 FILLER_114_1600
*1560 FILLER_114_1634
*1561 FILLER_114_1642
*1562 FILLER_114_1650
*1563 FILLER_114_1676
*1564 FILLER_114_1692
*1565 FILLER_114_1702
*1566 FILLER_114_172
*1567 FILLER_114_1736
*1568 FILLER_114_1744
*1569 FILLER_114_1748
*1570 FILLER_114_1765
*1571 FILLER_114_1767
*1572 FILLER_114_1770
*1573 FILLER_114_1804
*1574 FILLER_114_1838
*1575 FILLER_114_1872
*1576 FILLER_114_1906
*1577 FILLER_114_2
*1578 FILLER_114_206
*1579 FILLER_114_222
*1580 FILLER_114_224
*1581 FILLER_114_233
*1582 FILLER_114_237
*1583 FILLER_114_240
*1584 FILLER_114_256
*1585 FILLER_114_264
*1586 FILLER_114_274
*1587 FILLER_114_285
*1588 FILLER_114_301
*1589 FILLER_114_305
*1590 FILLER_114_308
*1591 FILLER_114_316
*1592 FILLER_114_327
*1593 FILLER_114_335
*1594 FILLER_114_339
*1595 FILLER_114_342
*1596 FILLER_114_36
*1597 FILLER_114_376
*1598 FILLER_114_410
*1599 FILLER_114_444
*1600 FILLER_114_478
*1601 FILLER_114_512
*1602 FILLER_114_546
*1603 FILLER_114_554
*1604 FILLER_114_558
*1605 FILLER_114_566
*1606 FILLER_114_574
*1607 FILLER_114_580
*1608 FILLER_114_596
*1609 FILLER_114_600
*1610 FILLER_114_602
*1611 FILLER_114_611
*1612 FILLER_114_614
*1613 FILLER_114_630
*1614 FILLER_114_638
*1615 FILLER_114_648
*1616 FILLER_114_682
*1617 FILLER_114_70
*1618 FILLER_114_716
*1619 FILLER_114_724
*1620 FILLER_114_739
*1621 FILLER_114_747
*1622 FILLER_114_750
*1623 FILLER_114_766
*1624 FILLER_114_807
*1625 FILLER_114_815
*1626 FILLER_114_818
*1627 FILLER_114_826
*1628 FILLER_114_828
*1629 FILLER_114_843
*1630 FILLER_114_847
*1631 FILLER_114_849
*1632 FILLER_114_852
*1633 FILLER_114_860
*1634 FILLER_114_868
*1635 FILLER_114_886
*1636 FILLER_114_920
*1637 FILLER_114_954
*1638 FILLER_114_988
*1639 FILLER_115_1001
*1640 FILLER_115_104
*1641 FILLER_115_120
*1642 FILLER_115_124
*1643 FILLER_115_1815
*1644 FILLER_115_1879
*1645 FILLER_115_1885
*1646 FILLER_115_1901
*1647 FILLER_115_1903
*1648 FILLER_115_36
*1649 FILLER_115_68
*1650 FILLER_115_72
*1651 FILLER_115_937
*1652 FILLER_116_1000
*1653 FILLER_116_1002
*1654 FILLER_116_101
*1655 FILLER_116_107
*1656 FILLER_116_123
*1657 FILLER_116_1815
*1658 FILLER_116_1847
*1659 FILLER_116_1850
*1660 FILLER_116_1882
*1661 FILLER_116_1920
*1662 FILLER_116_1936
*1663 FILLER_116_2
*1664 FILLER_116_34
*1665 FILLER_116_37
*1666 FILLER_116_937
*1667 FILLER_116_969
*1668 FILLER_116_972
*1669 FILLER_116_988
*1670 FILLER_116_996
*1671 FILLER_117_1001
*1672 FILLER_117_104
*1673 FILLER_117_112
*1674 FILLER_117_116
*1675 FILLER_117_1823
*1676 FILLER_117_1855
*1677 FILLER_117_1871
*1678 FILLER_117_1879
*1679 FILLER_117_1885
*1680 FILLER_117_1901
*1681 FILLER_117_1903
*1682 FILLER_117_36
*1683 FILLER_117_68
*1684 FILLER_117_72
*1685 FILLER_117_937
*1686 FILLER_118_1000
*1687 FILLER_118_1002
*1688 FILLER_118_101
*1689 FILLER_118_107
*1690 FILLER_118_123
*1691 FILLER_118_1815
*1692 FILLER_118_1847
*1693 FILLER_118_1850
*1694 FILLER_118_1882
*1695 FILLER_118_1920
*1696 FILLER_118_1936
*1697 FILLER_118_2
*1698 FILLER_118_34
*1699 FILLER_118_37
*1700 FILLER_118_937
*1701 FILLER_118_969
*1702 FILLER_118_972
*1703 FILLER_118_988
*1704 FILLER_118_996
*1705 FILLER_119_1001
*1706 FILLER_119_104
*1707 FILLER_119_120
*1708 FILLER_119_124
*1709 FILLER_119_1815
*1710 FILLER_119_1879
*1711 FILLER_119_1885
*1712 FILLER_119_1901
*1713 FILLER_119_1903
*1714 FILLER_119_36
*1715 FILLER_119_68
*1716 FILLER_119_72
*1717 FILLER_119_937
*1718 FILLER_11_1041
*1719 FILLER_11_1108
*1720 FILLER_11_1116
*1721 FILLER_11_1136
*1722 FILLER_11_1179
*1723 FILLER_11_1187
*1724 FILLER_11_1189
*1725 FILLER_11_1192
*1726 FILLER_11_1256
*1727 FILLER_11_1262
*1728 FILLER_11_1326
*1729 FILLER_11_1358
*1730 FILLER_11_136
*1731 FILLER_11_1390
*1732 FILLER_11_1398
*1733 FILLER_11_1402
*1734 FILLER_11_142
*1735 FILLER_11_1466
*1736 FILLER_11_1472
*1737 FILLER_11_1536
*1738 FILLER_11_1542
*1739 FILLER_11_1606
*1740 FILLER_11_1612
*1741 FILLER_11_1676
*1742 FILLER_11_1682
*1743 FILLER_11_1746
*1744 FILLER_11_1752
*1745 FILLER_11_1816
*1746 FILLER_11_1822
*1747 FILLER_11_1886
*1748 FILLER_11_1892
*1749 FILLER_11_1924
*1750 FILLER_11_1932
*1751 FILLER_11_1936
*1752 FILLER_11_2
*1753 FILLER_11_206
*1754 FILLER_11_212
*1755 FILLER_11_276
*1756 FILLER_11_282
*1757 FILLER_11_346
*1758 FILLER_11_352
*1759 FILLER_11_416
*1760 FILLER_11_422
*1761 FILLER_11_486
*1762 FILLER_11_492
*1763 FILLER_11_556
*1764 FILLER_11_562
*1765 FILLER_11_594
*1766 FILLER_11_598
*1767 FILLER_11_626
*1768 FILLER_11_658
*1769 FILLER_11_66
*1770 FILLER_11_690
*1771 FILLER_11_698
*1772 FILLER_11_702
*1773 FILLER_11_72
*1774 FILLER_11_734
*1775 FILLER_11_738
*1776 FILLER_11_746
*1777 FILLER_11_762
*1778 FILLER_11_772
*1779 FILLER_11_825
*1780 FILLER_11_899
*1781 FILLER_120_1000
*1782 FILLER_120_1002
*1783 FILLER_120_101
*1784 FILLER_120_107
*1785 FILLER_120_123
*1786 FILLER_120_1815
*1787 FILLER_120_1847
*1788 FILLER_120_1850
*1789 FILLER_120_1914
*1790 FILLER_120_1920
*1791 FILLER_120_1936
*1792 FILLER_120_2
*1793 FILLER_120_34
*1794 FILLER_120_37
*1795 FILLER_120_937
*1796 FILLER_120_969
*1797 FILLER_120_972
*1798 FILLER_120_988
*1799 FILLER_120_996
*1800 FILLER_121_1001
*1801 FILLER_121_104
*1802 FILLER_121_120
*1803 FILLER_121_124
*1804 FILLER_121_1815
*1805 FILLER_121_1879
*1806 FILLER_121_1885
*1807 FILLER_121_1917
*1808 FILLER_121_1933
*1809 FILLER_121_1937
*1810 FILLER_121_36
*1811 FILLER_121_68
*1812 FILLER_121_72
*1813 FILLER_121_937
*1814 FILLER_122_1000
*1815 FILLER_122_1002
*1816 FILLER_122_101
*1817 FILLER_122_107
*1818 FILLER_122_123
*1819 FILLER_122_1815
*1820 FILLER_122_1847
*1821 FILLER_122_1850
*1822 FILLER_122_1914
*1823 FILLER_122_1920
*1824 FILLER_122_1936
*1825 FILLER_122_2
*1826 FILLER_122_34
*1827 FILLER_122_37
*1828 FILLER_122_937
*1829 FILLER_122_969
*1830 FILLER_122_972
*1831 FILLER_122_988
*1832 FILLER_122_996
*1833 FILLER_123_1001
*1834 FILLER_123_104
*1835 FILLER_123_120
*1836 FILLER_123_124
*1837 FILLER_123_1815
*1838 FILLER_123_1879
*1839 FILLER_123_1885
*1840 FILLER_123_1917
*1841 FILLER_123_1933
*1842 FILLER_123_1937
*1843 FILLER_123_2
*1844 FILLER_123_66
*1845 FILLER_123_72
*1846 FILLER_123_937
*1847 FILLER_124_1000
*1848 FILLER_124_1002
*1849 FILLER_124_101
*1850 FILLER_124_107
*1851 FILLER_124_123
*1852 FILLER_124_1815
*1853 FILLER_124_1847
*1854 FILLER_124_1850
*1855 FILLER_124_1914
*1856 FILLER_124_1920
*1857 FILLER_124_1936
*1858 FILLER_124_2
*1859 FILLER_124_34
*1860 FILLER_124_37
*1861 FILLER_124_937
*1862 FILLER_124_969
*1863 FILLER_124_972
*1864 FILLER_124_988
*1865 FILLER_124_996
*1866 FILLER_125_104
*1867 FILLER_125_120
*1868 FILLER_125_124
*1869 FILLER_125_1815
*1870 FILLER_125_1879
*1871 FILLER_125_1885
*1872 FILLER_125_1917
*1873 FILLER_125_1933
*1874 FILLER_125_1937
*1875 FILLER_125_2
*1876 FILLER_125_66
*1877 FILLER_125_72
*1878 FILLER_125_937
*1879 FILLER_125_969
*1880 FILLER_125_985
*1881 FILLER_125_993
*1882 FILLER_126_1000
*1883 FILLER_126_1002
*1884 FILLER_126_101
*1885 FILLER_126_107
*1886 FILLER_126_123
*1887 FILLER_126_1815
*1888 FILLER_126_1847
*1889 FILLER_126_1850
*1890 FILLER_126_1914
*1891 FILLER_126_1920
*1892 FILLER_126_1936
*1893 FILLER_126_2
*1894 FILLER_126_34
*1895 FILLER_126_37
*1896 FILLER_126_945
*1897 FILLER_126_961
*1898 FILLER_126_969
*1899 FILLER_126_972
*1900 FILLER_126_988
*1901 FILLER_126_996
*1902 FILLER_127_1001
*1903 FILLER_127_104
*1904 FILLER_127_120
*1905 FILLER_127_124
*1906 FILLER_127_1815
*1907 FILLER_127_1879
*1908 FILLER_127_1885
*1909 FILLER_127_1917
*1910 FILLER_127_1933
*1911 FILLER_127_1937
*1912 FILLER_127_2
*1913 FILLER_127_66
*1914 FILLER_127_72
*1915 FILLER_127_937
*1916 FILLER_128_1000
*1917 FILLER_128_1002
*1918 FILLER_128_101
*1919 FILLER_128_107
*1920 FILLER_128_123
*1921 FILLER_128_1815
*1922 FILLER_128_1847
*1923 FILLER_128_1850
*1924 FILLER_128_1914
*1925 FILLER_128_1920
*1926 FILLER_128_1936
*1927 FILLER_128_2
*1928 FILLER_128_34
*1929 FILLER_128_37
*1930 FILLER_128_937
*1931 FILLER_128_969
*1932 FILLER_128_972
*1933 FILLER_128_988
*1934 FILLER_128_996
*1935 FILLER_129_1001
*1936 FILLER_129_104
*1937 FILLER_129_120
*1938 FILLER_129_124
*1939 FILLER_129_1815
*1940 FILLER_129_1879
*1941 FILLER_129_1885
*1942 FILLER_129_1917
*1943 FILLER_129_1933
*1944 FILLER_129_1937
*1945 FILLER_129_2
*1946 FILLER_129_66
*1947 FILLER_129_72
*1948 FILLER_129_937
*1949 FILLER_12_104
*1950 FILLER_12_1085
*1951 FILLER_12_1087
*1952 FILLER_12_1155
*1953 FILLER_12_1184
*1954 FILLER_12_1188
*1955 FILLER_12_1192
*1956 FILLER_12_1196
*1957 FILLER_12_1205
*1958 FILLER_12_1221
*1959 FILLER_12_1223
*1960 FILLER_12_1226
*1961 FILLER_12_1260
*1962 FILLER_12_1294
*1963 FILLER_12_1354
*1964 FILLER_12_1358
*1965 FILLER_12_138
*1966 FILLER_12_1388
*1967 FILLER_12_1392
*1968 FILLER_12_1396
*1969 FILLER_12_1430
*1970 FILLER_12_1464
*1971 FILLER_12_1498
*1972 FILLER_12_1532
*1973 FILLER_12_1541
*1974 FILLER_12_1557
*1975 FILLER_12_1561
*1976 FILLER_12_1563
*1977 FILLER_12_1566
*1978 FILLER_12_1574
*1979 FILLER_12_1578
*1980 FILLER_12_1594
*1981 FILLER_12_1600
*1982 FILLER_12_1604
*1983 FILLER_12_1606
*1984 FILLER_12_1614
*1985 FILLER_12_1630
*1986 FILLER_12_1634
*1987 FILLER_12_1668
*1988 FILLER_12_1702
*1989 FILLER_12_172
*1990 FILLER_12_1736
*1991 FILLER_12_1770
*1992 FILLER_12_1804
*1993 FILLER_12_1838
*1994 FILLER_12_1872
*1995 FILLER_12_1906
*1996 FILLER_12_2
*1997 FILLER_12_206
*1998 FILLER_12_240
*1999 FILLER_12_274
*2000 FILLER_12_290
*2001 FILLER_12_294
*2002 FILLER_12_296
*2003 FILLER_12_304
*2004 FILLER_12_308
*2005 FILLER_12_316
*2006 FILLER_12_320
*2007 FILLER_12_335
*2008 FILLER_12_339
*2009 FILLER_12_342
*2010 FILLER_12_36
*2011 FILLER_12_383
*2012 FILLER_12_399
*2013 FILLER_12_407
*2014 FILLER_12_410
*2015 FILLER_12_444
*2016 FILLER_12_478
*2017 FILLER_12_512
*2018 FILLER_12_546
*2019 FILLER_12_580
*2020 FILLER_12_584
*2021 FILLER_12_614
*2022 FILLER_12_642
*2023 FILLER_12_648
*2024 FILLER_12_682
*2025 FILLER_12_70
*2026 FILLER_12_716
*2027 FILLER_12_732
*2028 FILLER_12_736
*2029 FILLER_12_750
*2030 FILLER_12_784
*2031 FILLER_12_844
*2032 FILLER_12_852
*2033 FILLER_12_854
*2034 FILLER_12_920
*2035 FILLER_12_967
*2036 FILLER_12_969
*2037 FILLER_12_984
*2038 FILLER_12_988
*2039 FILLER_12_990
*2040 FILLER_130_1000
*2041 FILLER_130_1002
*2042 FILLER_130_101
*2043 FILLER_130_107
*2044 FILLER_130_123
*2045 FILLER_130_1815
*2046 FILLER_130_1847
*2047 FILLER_130_1850
*2048 FILLER_130_1914
*2049 FILLER_130_1920
*2050 FILLER_130_1936
*2051 FILLER_130_2
*2052 FILLER_130_34
*2053 FILLER_130_37
*2054 FILLER_130_937
*2055 FILLER_130_969
*2056 FILLER_130_972
*2057 FILLER_130_988
*2058 FILLER_130_996
*2059 FILLER_131_1001
*2060 FILLER_131_104
*2061 FILLER_131_120
*2062 FILLER_131_124
*2063 FILLER_131_1815
*2064 FILLER_131_1879
*2065 FILLER_131_1885
*2066 FILLER_131_1917
*2067 FILLER_131_1933
*2068 FILLER_131_1937
*2069 FILLER_131_2
*2070 FILLER_131_66
*2071 FILLER_131_72
*2072 FILLER_131_937
*2073 FILLER_132_1000
*2074 FILLER_132_1002
*2075 FILLER_132_101
*2076 FILLER_132_107
*2077 FILLER_132_123
*2078 FILLER_132_1815
*2079 FILLER_132_1847
*2080 FILLER_132_1850
*2081 FILLER_132_1914
*2082 FILLER_132_1920
*2083 FILLER_132_1936
*2084 FILLER_132_2
*2085 FILLER_132_34
*2086 FILLER_132_37
*2087 FILLER_132_937
*2088 FILLER_132_969
*2089 FILLER_132_972
*2090 FILLER_132_988
*2091 FILLER_132_996
*2092 FILLER_133_1001
*2093 FILLER_133_104
*2094 FILLER_133_120
*2095 FILLER_133_124
*2096 FILLER_133_1815
*2097 FILLER_133_1879
*2098 FILLER_133_1885
*2099 FILLER_133_1917
*2100 FILLER_133_1933
*2101 FILLER_133_1937
*2102 FILLER_133_2
*2103 FILLER_133_66
*2104 FILLER_133_72
*2105 FILLER_133_937
*2106 FILLER_134_1000
*2107 FILLER_134_1002
*2108 FILLER_134_101
*2109 FILLER_134_107
*2110 FILLER_134_123
*2111 FILLER_134_1815
*2112 FILLER_134_1847
*2113 FILLER_134_1850
*2114 FILLER_134_1914
*2115 FILLER_134_1920
*2116 FILLER_134_1936
*2117 FILLER_134_2
*2118 FILLER_134_34
*2119 FILLER_134_37
*2120 FILLER_134_937
*2121 FILLER_134_969
*2122 FILLER_134_972
*2123 FILLER_134_988
*2124 FILLER_134_996
*2125 FILLER_135_1001
*2126 FILLER_135_104
*2127 FILLER_135_120
*2128 FILLER_135_124
*2129 FILLER_135_1815
*2130 FILLER_135_1879
*2131 FILLER_135_1885
*2132 FILLER_135_1917
*2133 FILLER_135_1933
*2134 FILLER_135_1937
*2135 FILLER_135_2
*2136 FILLER_135_66
*2137 FILLER_135_72
*2138 FILLER_135_937
*2139 FILLER_136_1000
*2140 FILLER_136_1002
*2141 FILLER_136_101
*2142 FILLER_136_107
*2143 FILLER_136_123
*2144 FILLER_136_1815
*2145 FILLER_136_1847
*2146 FILLER_136_1850
*2147 FILLER_136_1914
*2148 FILLER_136_1920
*2149 FILLER_136_1936
*2150 FILLER_136_2
*2151 FILLER_136_34
*2152 FILLER_136_37
*2153 FILLER_136_937
*2154 FILLER_136_969
*2155 FILLER_136_972
*2156 FILLER_136_988
*2157 FILLER_136_996
*2158 FILLER_137_1001
*2159 FILLER_137_104
*2160 FILLER_137_120
*2161 FILLER_137_124
*2162 FILLER_137_1815
*2163 FILLER_137_1879
*2164 FILLER_137_1885
*2165 FILLER_137_1917
*2166 FILLER_137_1933
*2167 FILLER_137_1937
*2168 FILLER_137_2
*2169 FILLER_137_66
*2170 FILLER_137_72
*2171 FILLER_137_937
*2172 FILLER_138_1000
*2173 FILLER_138_1002
*2174 FILLER_138_101
*2175 FILLER_138_107
*2176 FILLER_138_123
*2177 FILLER_138_1815
*2178 FILLER_138_1847
*2179 FILLER_138_1850
*2180 FILLER_138_1914
*2181 FILLER_138_1920
*2182 FILLER_138_1936
*2183 FILLER_138_2
*2184 FILLER_138_34
*2185 FILLER_138_37
*2186 FILLER_138_937
*2187 FILLER_138_969
*2188 FILLER_138_972
*2189 FILLER_138_988
*2190 FILLER_138_996
*2191 FILLER_139_1001
*2192 FILLER_139_104
*2193 FILLER_139_120
*2194 FILLER_139_124
*2195 FILLER_139_1815
*2196 FILLER_139_1879
*2197 FILLER_139_1885
*2198 FILLER_139_1917
*2199 FILLER_139_1933
*2200 FILLER_139_1937
*2201 FILLER_139_2
*2202 FILLER_139_66
*2203 FILLER_139_72
*2204 FILLER_139_937
*2205 FILLER_13_104
*2206 FILLER_13_120
*2207 FILLER_13_124
*2208 FILLER_13_1815
*2209 FILLER_13_1879
*2210 FILLER_13_1885
*2211 FILLER_13_1917
*2212 FILLER_13_1933
*2213 FILLER_13_1937
*2214 FILLER_13_2
*2215 FILLER_13_66
*2216 FILLER_13_72
*2217 FILLER_13_937
*2218 FILLER_13_954
*2219 FILLER_13_994
*2220 FILLER_13_996
*2221 FILLER_140_1000
*2222 FILLER_140_1002
*2223 FILLER_140_101
*2224 FILLER_140_107
*2225 FILLER_140_123
*2226 FILLER_140_1815
*2227 FILLER_140_1847
*2228 FILLER_140_1850
*2229 FILLER_140_1914
*2230 FILLER_140_1920
*2231 FILLER_140_1936
*2232 FILLER_140_2
*2233 FILLER_140_34
*2234 FILLER_140_37
*2235 FILLER_140_937
*2236 FILLER_140_969
*2237 FILLER_140_972
*2238 FILLER_140_988
*2239 FILLER_140_996
*2240 FILLER_141_1001
*2241 FILLER_141_104
*2242 FILLER_141_120
*2243 FILLER_141_124
*2244 FILLER_141_1815
*2245 FILLER_141_1879
*2246 FILLER_141_1885
*2247 FILLER_141_1917
*2248 FILLER_141_1933
*2249 FILLER_141_1937
*2250 FILLER_141_2
*2251 FILLER_141_66
*2252 FILLER_141_72
*2253 FILLER_141_937
*2254 FILLER_142_1000
*2255 FILLER_142_1002
*2256 FILLER_142_101
*2257 FILLER_142_107
*2258 FILLER_142_123
*2259 FILLER_142_1815
*2260 FILLER_142_1847
*2261 FILLER_142_1850
*2262 FILLER_142_1914
*2263 FILLER_142_1920
*2264 FILLER_142_1936
*2265 FILLER_142_2
*2266 FILLER_142_34
*2267 FILLER_142_37
*2268 FILLER_142_937
*2269 FILLER_142_969
*2270 FILLER_142_972
*2271 FILLER_142_988
*2272 FILLER_142_996
*2273 FILLER_143_1001
*2274 FILLER_143_104
*2275 FILLER_143_120
*2276 FILLER_143_124
*2277 FILLER_143_1815
*2278 FILLER_143_1879
*2279 FILLER_143_1885
*2280 FILLER_143_1917
*2281 FILLER_143_1933
*2282 FILLER_143_1937
*2283 FILLER_143_2
*2284 FILLER_143_66
*2285 FILLER_143_72
*2286 FILLER_143_937
*2287 FILLER_144_1000
*2288 FILLER_144_1002
*2289 FILLER_144_101
*2290 FILLER_144_107
*2291 FILLER_144_123
*2292 FILLER_144_1815
*2293 FILLER_144_1847
*2294 FILLER_144_1850
*2295 FILLER_144_1914
*2296 FILLER_144_1920
*2297 FILLER_144_1936
*2298 FILLER_144_2
*2299 FILLER_144_34
*2300 FILLER_144_37
*2301 FILLER_144_937
*2302 FILLER_144_969
*2303 FILLER_144_972
*2304 FILLER_144_988
*2305 FILLER_144_996
*2306 FILLER_145_1001
*2307 FILLER_145_104
*2308 FILLER_145_120
*2309 FILLER_145_124
*2310 FILLER_145_1815
*2311 FILLER_145_1879
*2312 FILLER_145_1885
*2313 FILLER_145_1917
*2314 FILLER_145_1933
*2315 FILLER_145_1937
*2316 FILLER_145_2
*2317 FILLER_145_66
*2318 FILLER_145_72
*2319 FILLER_145_937
*2320 FILLER_146_1000
*2321 FILLER_146_1002
*2322 FILLER_146_101
*2323 FILLER_146_107
*2324 FILLER_146_123
*2325 FILLER_146_1815
*2326 FILLER_146_1847
*2327 FILLER_146_1850
*2328 FILLER_146_1914
*2329 FILLER_146_1920
*2330 FILLER_146_1936
*2331 FILLER_146_2
*2332 FILLER_146_34
*2333 FILLER_146_37
*2334 FILLER_146_937
*2335 FILLER_146_969
*2336 FILLER_146_972
*2337 FILLER_146_988
*2338 FILLER_146_996
*2339 FILLER_147_1001
*2340 FILLER_147_104
*2341 FILLER_147_120
*2342 FILLER_147_124
*2343 FILLER_147_1815
*2344 FILLER_147_1879
*2345 FILLER_147_1885
*2346 FILLER_147_1917
*2347 FILLER_147_1933
*2348 FILLER_147_1937
*2349 FILLER_147_2
*2350 FILLER_147_66
*2351 FILLER_147_72
*2352 FILLER_147_937
*2353 FILLER_148_1000
*2354 FILLER_148_1002
*2355 FILLER_148_101
*2356 FILLER_148_107
*2357 FILLER_148_123
*2358 FILLER_148_1815
*2359 FILLER_148_1847
*2360 FILLER_148_1850
*2361 FILLER_148_1914
*2362 FILLER_148_1920
*2363 FILLER_148_1936
*2364 FILLER_148_2
*2365 FILLER_148_34
*2366 FILLER_148_37
*2367 FILLER_148_937
*2368 FILLER_148_969
*2369 FILLER_148_972
*2370 FILLER_148_988
*2371 FILLER_148_996
*2372 FILLER_149_1001
*2373 FILLER_149_104
*2374 FILLER_149_120
*2375 FILLER_149_124
*2376 FILLER_149_1815
*2377 FILLER_149_1879
*2378 FILLER_149_1885
*2379 FILLER_149_1917
*2380 FILLER_149_1933
*2381 FILLER_149_1937
*2382 FILLER_149_2
*2383 FILLER_149_66
*2384 FILLER_149_72
*2385 FILLER_149_937
*2386 FILLER_14_101
*2387 FILLER_14_107
*2388 FILLER_14_123
*2389 FILLER_14_1815
*2390 FILLER_14_1847
*2391 FILLER_14_1850
*2392 FILLER_14_1914
*2393 FILLER_14_1920
*2394 FILLER_14_1936
*2395 FILLER_14_2
*2396 FILLER_14_34
*2397 FILLER_14_37
*2398 FILLER_14_972
*2399 FILLER_150_1000
*2400 FILLER_150_1002
*2401 FILLER_150_101
*2402 FILLER_150_107
*2403 FILLER_150_123
*2404 FILLER_150_1815
*2405 FILLER_150_1847
*2406 FILLER_150_1850
*2407 FILLER_150_1914
*2408 FILLER_150_1920
*2409 FILLER_150_1936
*2410 FILLER_150_2
*2411 FILLER_150_34
*2412 FILLER_150_37
*2413 FILLER_150_937
*2414 FILLER_150_969
*2415 FILLER_150_972
*2416 FILLER_150_988
*2417 FILLER_150_996
*2418 FILLER_151_1001
*2419 FILLER_151_104
*2420 FILLER_151_120
*2421 FILLER_151_124
*2422 FILLER_151_1815
*2423 FILLER_151_1879
*2424 FILLER_151_1885
*2425 FILLER_151_1917
*2426 FILLER_151_1933
*2427 FILLER_151_1937
*2428 FILLER_151_2
*2429 FILLER_151_66
*2430 FILLER_151_72
*2431 FILLER_151_937
*2432 FILLER_152_1000
*2433 FILLER_152_1002
*2434 FILLER_152_101
*2435 FILLER_152_107
*2436 FILLER_152_123
*2437 FILLER_152_1815
*2438 FILLER_152_1847
*2439 FILLER_152_1850
*2440 FILLER_152_1914
*2441 FILLER_152_1920
*2442 FILLER_152_1936
*2443 FILLER_152_2
*2444 FILLER_152_34
*2445 FILLER_152_37
*2446 FILLER_152_937
*2447 FILLER_152_969
*2448 FILLER_152_972
*2449 FILLER_152_988
*2450 FILLER_152_996
*2451 FILLER_153_1001
*2452 FILLER_153_104
*2453 FILLER_153_120
*2454 FILLER_153_124
*2455 FILLER_153_1815
*2456 FILLER_153_1879
*2457 FILLER_153_1885
*2458 FILLER_153_1917
*2459 FILLER_153_1933
*2460 FILLER_153_1937
*2461 FILLER_153_2
*2462 FILLER_153_66
*2463 FILLER_153_72
*2464 FILLER_153_937
*2465 FILLER_154_1000
*2466 FILLER_154_1002
*2467 FILLER_154_101
*2468 FILLER_154_107
*2469 FILLER_154_123
*2470 FILLER_154_1815
*2471 FILLER_154_1847
*2472 FILLER_154_1850
*2473 FILLER_154_1914
*2474 FILLER_154_1920
*2475 FILLER_154_1936
*2476 FILLER_154_2
*2477 FILLER_154_34
*2478 FILLER_154_37
*2479 FILLER_154_937
*2480 FILLER_154_969
*2481 FILLER_154_972
*2482 FILLER_154_988
*2483 FILLER_154_996
*2484 FILLER_155_1001
*2485 FILLER_155_104
*2486 FILLER_155_120
*2487 FILLER_155_124
*2488 FILLER_155_1815
*2489 FILLER_155_1879
*2490 FILLER_155_1885
*2491 FILLER_155_1917
*2492 FILLER_155_1933
*2493 FILLER_155_1937
*2494 FILLER_155_2
*2495 FILLER_155_66
*2496 FILLER_155_72
*2497 FILLER_155_937
*2498 FILLER_156_1000
*2499 FILLER_156_1002
*2500 FILLER_156_101
*2501 FILLER_156_107
*2502 FILLER_156_123
*2503 FILLER_156_1815
*2504 FILLER_156_1847
*2505 FILLER_156_1850
*2506 FILLER_156_1914
*2507 FILLER_156_1920
*2508 FILLER_156_1936
*2509 FILLER_156_2
*2510 FILLER_156_34
*2511 FILLER_156_37
*2512 FILLER_156_937
*2513 FILLER_156_969
*2514 FILLER_156_972
*2515 FILLER_156_988
*2516 FILLER_156_996
*2517 FILLER_157_1001
*2518 FILLER_157_104
*2519 FILLER_157_120
*2520 FILLER_157_124
*2521 FILLER_157_1815
*2522 FILLER_157_1879
*2523 FILLER_157_1885
*2524 FILLER_157_1917
*2525 FILLER_157_1933
*2526 FILLER_157_1937
*2527 FILLER_157_2
*2528 FILLER_157_66
*2529 FILLER_157_72
*2530 FILLER_157_937
*2531 FILLER_158_1000
*2532 FILLER_158_1002
*2533 FILLER_158_101
*2534 FILLER_158_107
*2535 FILLER_158_123
*2536 FILLER_158_1815
*2537 FILLER_158_1847
*2538 FILLER_158_1850
*2539 FILLER_158_1914
*2540 FILLER_158_1920
*2541 FILLER_158_1936
*2542 FILLER_158_2
*2543 FILLER_158_34
*2544 FILLER_158_37
*2545 FILLER_158_937
*2546 FILLER_158_969
*2547 FILLER_158_972
*2548 FILLER_158_988
*2549 FILLER_158_996
*2550 FILLER_159_1001
*2551 FILLER_159_104
*2552 FILLER_159_120
*2553 FILLER_159_124
*2554 FILLER_159_1815
*2555 FILLER_159_1879
*2556 FILLER_159_1885
*2557 FILLER_159_1917
*2558 FILLER_159_1933
*2559 FILLER_159_1937
*2560 FILLER_159_2
*2561 FILLER_159_66
*2562 FILLER_159_72
*2563 FILLER_159_937
*2564 FILLER_15_104
*2565 FILLER_15_120
*2566 FILLER_15_124
*2567 FILLER_15_1815
*2568 FILLER_15_1879
*2569 FILLER_15_1885
*2570 FILLER_15_1917
*2571 FILLER_15_1933
*2572 FILLER_15_1937
*2573 FILLER_15_2
*2574 FILLER_15_66
*2575 FILLER_15_72
*2576 FILLER_15_953
*2577 FILLER_15_955
*2578 FILLER_15_990
*2579 FILLER_160_1000
*2580 FILLER_160_1002
*2581 FILLER_160_101
*2582 FILLER_160_107
*2583 FILLER_160_123
*2584 FILLER_160_1815
*2585 FILLER_160_1847
*2586 FILLER_160_1850
*2587 FILLER_160_1914
*2588 FILLER_160_1920
*2589 FILLER_160_1936
*2590 FILLER_160_2
*2591 FILLER_160_34
*2592 FILLER_160_37
*2593 FILLER_160_937
*2594 FILLER_160_969
*2595 FILLER_160_972
*2596 FILLER_160_988
*2597 FILLER_160_996
*2598 FILLER_161_1001
*2599 FILLER_161_104
*2600 FILLER_161_120
*2601 FILLER_161_124
*2602 FILLER_161_1815
*2603 FILLER_161_1879
*2604 FILLER_161_1885
*2605 FILLER_161_1917
*2606 FILLER_161_1933
*2607 FILLER_161_1937
*2608 FILLER_161_2
*2609 FILLER_161_66
*2610 FILLER_161_72
*2611 FILLER_161_937
*2612 FILLER_162_1000
*2613 FILLER_162_1002
*2614 FILLER_162_101
*2615 FILLER_162_107
*2616 FILLER_162_123
*2617 FILLER_162_1815
*2618 FILLER_162_1847
*2619 FILLER_162_1850
*2620 FILLER_162_1914
*2621 FILLER_162_1920
*2622 FILLER_162_1936
*2623 FILLER_162_2
*2624 FILLER_162_34
*2625 FILLER_162_37
*2626 FILLER_162_937
*2627 FILLER_162_969
*2628 FILLER_162_972
*2629 FILLER_162_988
*2630 FILLER_162_996
*2631 FILLER_163_1001
*2632 FILLER_163_104
*2633 FILLER_163_120
*2634 FILLER_163_124
*2635 FILLER_163_1815
*2636 FILLER_163_1879
*2637 FILLER_163_1885
*2638 FILLER_163_1917
*2639 FILLER_163_1933
*2640 FILLER_163_1937
*2641 FILLER_163_2
*2642 FILLER_163_66
*2643 FILLER_163_72
*2644 FILLER_163_937
*2645 FILLER_164_1000
*2646 FILLER_164_1002
*2647 FILLER_164_101
*2648 FILLER_164_107
*2649 FILLER_164_123
*2650 FILLER_164_1815
*2651 FILLER_164_1847
*2652 FILLER_164_1850
*2653 FILLER_164_1914
*2654 FILLER_164_1920
*2655 FILLER_164_1936
*2656 FILLER_164_2
*2657 FILLER_164_34
*2658 FILLER_164_37
*2659 FILLER_164_937
*2660 FILLER_164_969
*2661 FILLER_164_972
*2662 FILLER_164_988
*2663 FILLER_164_996
*2664 FILLER_165_1001
*2665 FILLER_165_104
*2666 FILLER_165_120
*2667 FILLER_165_124
*2668 FILLER_165_1815
*2669 FILLER_165_1879
*2670 FILLER_165_1885
*2671 FILLER_165_1917
*2672 FILLER_165_1933
*2673 FILLER_165_1937
*2674 FILLER_165_2
*2675 FILLER_165_66
*2676 FILLER_165_72
*2677 FILLER_165_937
*2678 FILLER_166_1000
*2679 FILLER_166_1002
*2680 FILLER_166_101
*2681 FILLER_166_107
*2682 FILLER_166_123
*2683 FILLER_166_1815
*2684 FILLER_166_1847
*2685 FILLER_166_1850
*2686 FILLER_166_1914
*2687 FILLER_166_1920
*2688 FILLER_166_1936
*2689 FILLER_166_2
*2690 FILLER_166_34
*2691 FILLER_166_37
*2692 FILLER_166_937
*2693 FILLER_166_969
*2694 FILLER_166_972
*2695 FILLER_166_988
*2696 FILLER_166_996
*2697 FILLER_167_1001
*2698 FILLER_167_104
*2699 FILLER_167_120
*2700 FILLER_167_124
*2701 FILLER_167_1815
*2702 FILLER_167_1879
*2703 FILLER_167_1885
*2704 FILLER_167_1917
*2705 FILLER_167_1933
*2706 FILLER_167_1937
*2707 FILLER_167_2
*2708 FILLER_167_66
*2709 FILLER_167_72
*2710 FILLER_167_937
*2711 FILLER_168_1000
*2712 FILLER_168_1002
*2713 FILLER_168_101
*2714 FILLER_168_107
*2715 FILLER_168_123
*2716 FILLER_168_1815
*2717 FILLER_168_1847
*2718 FILLER_168_1850
*2719 FILLER_168_1914
*2720 FILLER_168_1920
*2721 FILLER_168_1936
*2722 FILLER_168_2
*2723 FILLER_168_34
*2724 FILLER_168_37
*2725 FILLER_168_937
*2726 FILLER_168_969
*2727 FILLER_168_972
*2728 FILLER_168_988
*2729 FILLER_168_996
*2730 FILLER_169_1001
*2731 FILLER_169_104
*2732 FILLER_169_120
*2733 FILLER_169_124
*2734 FILLER_169_1815
*2735 FILLER_169_1879
*2736 FILLER_169_1885
*2737 FILLER_169_1917
*2738 FILLER_169_1933
*2739 FILLER_169_1937
*2740 FILLER_169_2
*2741 FILLER_169_66
*2742 FILLER_169_72
*2743 FILLER_169_937
*2744 FILLER_16_101
*2745 FILLER_16_107
*2746 FILLER_16_123
*2747 FILLER_16_1815
*2748 FILLER_16_1847
*2749 FILLER_16_1850
*2750 FILLER_16_1914
*2751 FILLER_16_1920
*2752 FILLER_16_1936
*2753 FILLER_16_2
*2754 FILLER_16_34
*2755 FILLER_16_37
*2756 FILLER_16_955
*2757 FILLER_16_963
*2758 FILLER_16_976
*2759 FILLER_170_1000
*2760 FILLER_170_1002
*2761 FILLER_170_101
*2762 FILLER_170_107
*2763 FILLER_170_123
*2764 FILLER_170_1815
*2765 FILLER_170_1847
*2766 FILLER_170_1850
*2767 FILLER_170_1914
*2768 FILLER_170_1920
*2769 FILLER_170_1936
*2770 FILLER_170_2
*2771 FILLER_170_34
*2772 FILLER_170_37
*2773 FILLER_170_937
*2774 FILLER_170_969
*2775 FILLER_170_972
*2776 FILLER_170_988
*2777 FILLER_170_996
*2778 FILLER_171_1001
*2779 FILLER_171_104
*2780 FILLER_171_120
*2781 FILLER_171_124
*2782 FILLER_171_1815
*2783 FILLER_171_1879
*2784 FILLER_171_1885
*2785 FILLER_171_1917
*2786 FILLER_171_1933
*2787 FILLER_171_1937
*2788 FILLER_171_2
*2789 FILLER_171_66
*2790 FILLER_171_72
*2791 FILLER_171_937
*2792 FILLER_172_1000
*2793 FILLER_172_1002
*2794 FILLER_172_101
*2795 FILLER_172_107
*2796 FILLER_172_123
*2797 FILLER_172_1815
*2798 FILLER_172_1847
*2799 FILLER_172_1850
*2800 FILLER_172_1914
*2801 FILLER_172_1920
*2802 FILLER_172_1936
*2803 FILLER_172_2
*2804 FILLER_172_34
*2805 FILLER_172_37
*2806 FILLER_172_937
*2807 FILLER_172_969
*2808 FILLER_172_972
*2809 FILLER_172_988
*2810 FILLER_172_996
*2811 FILLER_173_1001
*2812 FILLER_173_104
*2813 FILLER_173_120
*2814 FILLER_173_124
*2815 FILLER_173_1815
*2816 FILLER_173_1879
*2817 FILLER_173_1885
*2818 FILLER_173_1917
*2819 FILLER_173_1933
*2820 FILLER_173_1937
*2821 FILLER_173_2
*2822 FILLER_173_66
*2823 FILLER_173_72
*2824 FILLER_173_937
*2825 FILLER_174_1000
*2826 FILLER_174_1002
*2827 FILLER_174_101
*2828 FILLER_174_107
*2829 FILLER_174_123
*2830 FILLER_174_1815
*2831 FILLER_174_1847
*2832 FILLER_174_1850
*2833 FILLER_174_1914
*2834 FILLER_174_1920
*2835 FILLER_174_1936
*2836 FILLER_174_2
*2837 FILLER_174_34
*2838 FILLER_174_37
*2839 FILLER_174_937
*2840 FILLER_174_969
*2841 FILLER_174_972
*2842 FILLER_174_988
*2843 FILLER_174_996
*2844 FILLER_175_1001
*2845 FILLER_175_104
*2846 FILLER_175_120
*2847 FILLER_175_124
*2848 FILLER_175_1815
*2849 FILLER_175_1879
*2850 FILLER_175_1885
*2851 FILLER_175_1917
*2852 FILLER_175_1933
*2853 FILLER_175_1937
*2854 FILLER_175_2
*2855 FILLER_175_66
*2856 FILLER_175_72
*2857 FILLER_175_937
*2858 FILLER_176_1000
*2859 FILLER_176_1002
*2860 FILLER_176_101
*2861 FILLER_176_107
*2862 FILLER_176_123
*2863 FILLER_176_1815
*2864 FILLER_176_1847
*2865 FILLER_176_1850
*2866 FILLER_176_1914
*2867 FILLER_176_1920
*2868 FILLER_176_1936
*2869 FILLER_176_2
*2870 FILLER_176_34
*2871 FILLER_176_37
*2872 FILLER_176_937
*2873 FILLER_176_969
*2874 FILLER_176_972
*2875 FILLER_176_988
*2876 FILLER_176_996
*2877 FILLER_177_1001
*2878 FILLER_177_104
*2879 FILLER_177_120
*2880 FILLER_177_124
*2881 FILLER_177_1815
*2882 FILLER_177_1879
*2883 FILLER_177_1885
*2884 FILLER_177_1917
*2885 FILLER_177_1933
*2886 FILLER_177_1937
*2887 FILLER_177_2
*2888 FILLER_177_66
*2889 FILLER_177_72
*2890 FILLER_177_937
*2891 FILLER_178_1000
*2892 FILLER_178_1002
*2893 FILLER_178_101
*2894 FILLER_178_107
*2895 FILLER_178_123
*2896 FILLER_178_1815
*2897 FILLER_178_1847
*2898 FILLER_178_1850
*2899 FILLER_178_1914
*2900 FILLER_178_1920
*2901 FILLER_178_1936
*2902 FILLER_178_2
*2903 FILLER_178_34
*2904 FILLER_178_37
*2905 FILLER_178_937
*2906 FILLER_178_969
*2907 FILLER_178_972
*2908 FILLER_178_988
*2909 FILLER_178_996
*2910 FILLER_179_1001
*2911 FILLER_179_104
*2912 FILLER_179_120
*2913 FILLER_179_124
*2914 FILLER_179_1815
*2915 FILLER_179_1879
*2916 FILLER_179_1885
*2917 FILLER_179_1917
*2918 FILLER_179_1933
*2919 FILLER_179_1937
*2920 FILLER_179_2
*2921 FILLER_179_66
*2922 FILLER_179_72
*2923 FILLER_179_937
*2924 FILLER_17_104
*2925 FILLER_17_120
*2926 FILLER_17_124
*2927 FILLER_17_1815
*2928 FILLER_17_1879
*2929 FILLER_17_1885
*2930 FILLER_17_1917
*2931 FILLER_17_1933
*2932 FILLER_17_1937
*2933 FILLER_17_2
*2934 FILLER_17_66
*2935 FILLER_17_72
*2936 FILLER_17_949
*2937 FILLER_180_1000
*2938 FILLER_180_1002
*2939 FILLER_180_101
*2940 FILLER_180_107
*2941 FILLER_180_123
*2942 FILLER_180_1815
*2943 FILLER_180_1847
*2944 FILLER_180_1850
*2945 FILLER_180_1914
*2946 FILLER_180_1920
*2947 FILLER_180_1936
*2948 FILLER_180_2
*2949 FILLER_180_34
*2950 FILLER_180_37
*2951 FILLER_180_937
*2952 FILLER_180_969
*2953 FILLER_180_972
*2954 FILLER_180_988
*2955 FILLER_180_996
*2956 FILLER_181_1001
*2957 FILLER_181_104
*2958 FILLER_181_120
*2959 FILLER_181_124
*2960 FILLER_181_1815
*2961 FILLER_181_1879
*2962 FILLER_181_1885
*2963 FILLER_181_1917
*2964 FILLER_181_1933
*2965 FILLER_181_1937
*2966 FILLER_181_2
*2967 FILLER_181_66
*2968 FILLER_181_72
*2969 FILLER_181_937
*2970 FILLER_182_1000
*2971 FILLER_182_1002
*2972 FILLER_182_101
*2973 FILLER_182_107
*2974 FILLER_182_123
*2975 FILLER_182_1815
*2976 FILLER_182_1847
*2977 FILLER_182_1850
*2978 FILLER_182_1914
*2979 FILLER_182_1920
*2980 FILLER_182_1936
*2981 FILLER_182_2
*2982 FILLER_182_34
*2983 FILLER_182_37
*2984 FILLER_182_937
*2985 FILLER_182_969
*2986 FILLER_182_972
*2987 FILLER_182_988
*2988 FILLER_182_996
*2989 FILLER_183_1001
*2990 FILLER_183_104
*2991 FILLER_183_120
*2992 FILLER_183_124
*2993 FILLER_183_1815
*2994 FILLER_183_1879
*2995 FILLER_183_1885
*2996 FILLER_183_1917
*2997 FILLER_183_1933
*2998 FILLER_183_1937
*2999 FILLER_183_2
*3000 FILLER_183_66
*3001 FILLER_183_72
*3002 FILLER_183_937
*3003 FILLER_184_1000
*3004 FILLER_184_1002
*3005 FILLER_184_101
*3006 FILLER_184_107
*3007 FILLER_184_123
*3008 FILLER_184_1815
*3009 FILLER_184_1847
*3010 FILLER_184_1850
*3011 FILLER_184_1914
*3012 FILLER_184_1920
*3013 FILLER_184_1936
*3014 FILLER_184_2
*3015 FILLER_184_34
*3016 FILLER_184_37
*3017 FILLER_184_937
*3018 FILLER_184_969
*3019 FILLER_184_972
*3020 FILLER_184_988
*3021 FILLER_184_996
*3022 FILLER_185_1001
*3023 FILLER_185_104
*3024 FILLER_185_120
*3025 FILLER_185_124
*3026 FILLER_185_1815
*3027 FILLER_185_1879
*3028 FILLER_185_1885
*3029 FILLER_185_1917
*3030 FILLER_185_1933
*3031 FILLER_185_1937
*3032 FILLER_185_2
*3033 FILLER_185_66
*3034 FILLER_185_72
*3035 FILLER_185_937
*3036 FILLER_186_1000
*3037 FILLER_186_1002
*3038 FILLER_186_101
*3039 FILLER_186_107
*3040 FILLER_186_123
*3041 FILLER_186_1815
*3042 FILLER_186_1847
*3043 FILLER_186_1850
*3044 FILLER_186_1914
*3045 FILLER_186_1920
*3046 FILLER_186_1936
*3047 FILLER_186_2
*3048 FILLER_186_34
*3049 FILLER_186_37
*3050 FILLER_186_937
*3051 FILLER_186_969
*3052 FILLER_186_972
*3053 FILLER_186_988
*3054 FILLER_186_996
*3055 FILLER_187_1001
*3056 FILLER_187_104
*3057 FILLER_187_120
*3058 FILLER_187_124
*3059 FILLER_187_1815
*3060 FILLER_187_1879
*3061 FILLER_187_1885
*3062 FILLER_187_1917
*3063 FILLER_187_1933
*3064 FILLER_187_1937
*3065 FILLER_187_2
*3066 FILLER_187_66
*3067 FILLER_187_72
*3068 FILLER_187_937
*3069 FILLER_188_1000
*3070 FILLER_188_1002
*3071 FILLER_188_101
*3072 FILLER_188_107
*3073 FILLER_188_123
*3074 FILLER_188_1815
*3075 FILLER_188_1847
*3076 FILLER_188_1850
*3077 FILLER_188_1914
*3078 FILLER_188_1920
*3079 FILLER_188_1936
*3080 FILLER_188_2
*3081 FILLER_188_34
*3082 FILLER_188_37
*3083 FILLER_188_937
*3084 FILLER_188_969
*3085 FILLER_188_972
*3086 FILLER_188_988
*3087 FILLER_188_996
*3088 FILLER_189_1001
*3089 FILLER_189_104
*3090 FILLER_189_120
*3091 FILLER_189_124
*3092 FILLER_189_1815
*3093 FILLER_189_1879
*3094 FILLER_189_1885
*3095 FILLER_189_1917
*3096 FILLER_189_1933
*3097 FILLER_189_1937
*3098 FILLER_189_2
*3099 FILLER_189_66
*3100 FILLER_189_72
*3101 FILLER_189_937
*3102 FILLER_18_1001
*3103 FILLER_18_101
*3104 FILLER_18_107
*3105 FILLER_18_123
*3106 FILLER_18_1815
*3107 FILLER_18_1847
*3108 FILLER_18_1850
*3109 FILLER_18_1914
*3110 FILLER_18_1920
*3111 FILLER_18_1936
*3112 FILLER_18_2
*3113 FILLER_18_34
*3114 FILLER_18_37
*3115 FILLER_18_941
*3116 FILLER_18_957
*3117 FILLER_18_965
*3118 FILLER_18_969
*3119 FILLER_18_972
*3120 FILLER_18_981
*3121 FILLER_18_997
*3122 FILLER_190_1000
*3123 FILLER_190_1002
*3124 FILLER_190_101
*3125 FILLER_190_107
*3126 FILLER_190_123
*3127 FILLER_190_1815
*3128 FILLER_190_1847
*3129 FILLER_190_1850
*3130 FILLER_190_1914
*3131 FILLER_190_1920
*3132 FILLER_190_1936
*3133 FILLER_190_2
*3134 FILLER_190_34
*3135 FILLER_190_37
*3136 FILLER_190_937
*3137 FILLER_190_969
*3138 FILLER_190_972
*3139 FILLER_190_988
*3140 FILLER_190_996
*3141 FILLER_191_1001
*3142 FILLER_191_104
*3143 FILLER_191_120
*3144 FILLER_191_124
*3145 FILLER_191_1815
*3146 FILLER_191_1879
*3147 FILLER_191_1885
*3148 FILLER_191_1917
*3149 FILLER_191_1933
*3150 FILLER_191_1937
*3151 FILLER_191_2
*3152 FILLER_191_66
*3153 FILLER_191_72
*3154 FILLER_191_937
*3155 FILLER_192_1000
*3156 FILLER_192_1002
*3157 FILLER_192_101
*3158 FILLER_192_107
*3159 FILLER_192_123
*3160 FILLER_192_1815
*3161 FILLER_192_1847
*3162 FILLER_192_1850
*3163 FILLER_192_1914
*3164 FILLER_192_1920
*3165 FILLER_192_1936
*3166 FILLER_192_2
*3167 FILLER_192_34
*3168 FILLER_192_37
*3169 FILLER_192_937
*3170 FILLER_192_969
*3171 FILLER_192_972
*3172 FILLER_192_988
*3173 FILLER_192_996
*3174 FILLER_193_1001
*3175 FILLER_193_104
*3176 FILLER_193_120
*3177 FILLER_193_124
*3178 FILLER_193_1815
*3179 FILLER_193_1879
*3180 FILLER_193_1885
*3181 FILLER_193_1917
*3182 FILLER_193_1933
*3183 FILLER_193_1937
*3184 FILLER_193_2
*3185 FILLER_193_66
*3186 FILLER_193_72
*3187 FILLER_193_937
*3188 FILLER_194_1000
*3189 FILLER_194_1002
*3190 FILLER_194_101
*3191 FILLER_194_107
*3192 FILLER_194_123
*3193 FILLER_194_1815
*3194 FILLER_194_1847
*3195 FILLER_194_1850
*3196 FILLER_194_1914
*3197 FILLER_194_1920
*3198 FILLER_194_1936
*3199 FILLER_194_2
*3200 FILLER_194_34
*3201 FILLER_194_37
*3202 FILLER_194_937
*3203 FILLER_194_969
*3204 FILLER_194_972
*3205 FILLER_194_988
*3206 FILLER_194_996
*3207 FILLER_195_1001
*3208 FILLER_195_104
*3209 FILLER_195_120
*3210 FILLER_195_124
*3211 FILLER_195_1815
*3212 FILLER_195_1879
*3213 FILLER_195_1885
*3214 FILLER_195_1917
*3215 FILLER_195_1933
*3216 FILLER_195_1937
*3217 FILLER_195_2
*3218 FILLER_195_66
*3219 FILLER_195_72
*3220 FILLER_195_937
*3221 FILLER_196_1000
*3222 FILLER_196_1002
*3223 FILLER_196_101
*3224 FILLER_196_107
*3225 FILLER_196_123
*3226 FILLER_196_1815
*3227 FILLER_196_1847
*3228 FILLER_196_1850
*3229 FILLER_196_1914
*3230 FILLER_196_1920
*3231 FILLER_196_1936
*3232 FILLER_196_2
*3233 FILLER_196_34
*3234 FILLER_196_37
*3235 FILLER_196_937
*3236 FILLER_196_969
*3237 FILLER_196_972
*3238 FILLER_196_988
*3239 FILLER_196_996
*3240 FILLER_197_1001
*3241 FILLER_197_104
*3242 FILLER_197_120
*3243 FILLER_197_124
*3244 FILLER_197_1815
*3245 FILLER_197_1879
*3246 FILLER_197_1885
*3247 FILLER_197_1917
*3248 FILLER_197_1933
*3249 FILLER_197_1937
*3250 FILLER_197_2
*3251 FILLER_197_66
*3252 FILLER_197_72
*3253 FILLER_197_937
*3254 FILLER_198_1000
*3255 FILLER_198_1002
*3256 FILLER_198_101
*3257 FILLER_198_107
*3258 FILLER_198_123
*3259 FILLER_198_1815
*3260 FILLER_198_1847
*3261 FILLER_198_1850
*3262 FILLER_198_1914
*3263 FILLER_198_1920
*3264 FILLER_198_1936
*3265 FILLER_198_2
*3266 FILLER_198_34
*3267 FILLER_198_37
*3268 FILLER_198_937
*3269 FILLER_198_969
*3270 FILLER_198_972
*3271 FILLER_198_988
*3272 FILLER_198_996
*3273 FILLER_199_1001
*3274 FILLER_199_104
*3275 FILLER_199_120
*3276 FILLER_199_124
*3277 FILLER_199_1815
*3278 FILLER_199_1879
*3279 FILLER_199_1885
*3280 FILLER_199_1917
*3281 FILLER_199_1933
*3282 FILLER_199_1937
*3283 FILLER_199_2
*3284 FILLER_199_66
*3285 FILLER_199_72
*3286 FILLER_199_937
*3287 FILLER_19_104
*3288 FILLER_19_120
*3289 FILLER_19_124
*3290 FILLER_19_1815
*3291 FILLER_19_1879
*3292 FILLER_19_1885
*3293 FILLER_19_1917
*3294 FILLER_19_1933
*3295 FILLER_19_1937
*3296 FILLER_19_2
*3297 FILLER_19_66
*3298 FILLER_19_72
*3299 FILLER_19_945
*3300 FILLER_19_961
*3301 FILLER_19_965
*3302 FILLER_1_1032
*3303 FILLER_1_1034
*3304 FILLER_1_1122
*3305 FILLER_1_1126
*3306 FILLER_1_1128
*3307 FILLER_1_1179
*3308 FILLER_1_1187
*3309 FILLER_1_1189
*3310 FILLER_1_1192
*3311 FILLER_1_1224
*3312 FILLER_1_1262
*3313 FILLER_1_1326
*3314 FILLER_1_1332
*3315 FILLER_1_136
*3316 FILLER_1_1396
*3317 FILLER_1_142
*3318 FILLER_1_1436
*3319 FILLER_1_1468
*3320 FILLER_1_1472
*3321 FILLER_1_1536
*3322 FILLER_1_1542
*3323 FILLER_1_1574
*3324 FILLER_1_1609
*3325 FILLER_1_1612
*3326 FILLER_1_1644
*3327 FILLER_1_1682
*3328 FILLER_1_1714
*3329 FILLER_1_1752
*3330 FILLER_1_1816
*3331 FILLER_1_1822
*3332 FILLER_1_1886
*3333 FILLER_1_1892
*3334 FILLER_1_1924
*3335 FILLER_1_1932
*3336 FILLER_1_1936
*3337 FILLER_1_2
*3338 FILLER_1_206
*3339 FILLER_1_212
*3340 FILLER_1_244
*3341 FILLER_1_282
*3342 FILLER_1_346
*3343 FILLER_1_352
*3344 FILLER_1_416
*3345 FILLER_1_492
*3346 FILLER_1_556
*3347 FILLER_1_562
*3348 FILLER_1_626
*3349 FILLER_1_632
*3350 FILLER_1_66
*3351 FILLER_1_696
*3352 FILLER_1_702
*3353 FILLER_1_72
*3354 FILLER_1_766
*3355 FILLER_1_982
*3356 FILLER_200_1000
*3357 FILLER_200_1002
*3358 FILLER_200_101
*3359 FILLER_200_107
*3360 FILLER_200_123
*3361 FILLER_200_1815
*3362 FILLER_200_1847
*3363 FILLER_200_1850
*3364 FILLER_200_1914
*3365 FILLER_200_1920
*3366 FILLER_200_1936
*3367 FILLER_200_2
*3368 FILLER_200_34
*3369 FILLER_200_37
*3370 FILLER_200_937
*3371 FILLER_200_969
*3372 FILLER_200_972
*3373 FILLER_200_988
*3374 FILLER_200_996
*3375 FILLER_201_1001
*3376 FILLER_201_104
*3377 FILLER_201_120
*3378 FILLER_201_124
*3379 FILLER_201_1815
*3380 FILLER_201_1879
*3381 FILLER_201_1885
*3382 FILLER_201_1917
*3383 FILLER_201_1933
*3384 FILLER_201_1937
*3385 FILLER_201_2
*3386 FILLER_201_66
*3387 FILLER_201_72
*3388 FILLER_201_937
*3389 FILLER_202_1000
*3390 FILLER_202_1002
*3391 FILLER_202_101
*3392 FILLER_202_107
*3393 FILLER_202_123
*3394 FILLER_202_1815
*3395 FILLER_202_1847
*3396 FILLER_202_1850
*3397 FILLER_202_1914
*3398 FILLER_202_1920
*3399 FILLER_202_1936
*3400 FILLER_202_2
*3401 FILLER_202_34
*3402 FILLER_202_37
*3403 FILLER_202_937
*3404 FILLER_202_969
*3405 FILLER_202_972
*3406 FILLER_202_988
*3407 FILLER_202_996
*3408 FILLER_203_1001
*3409 FILLER_203_104
*3410 FILLER_203_120
*3411 FILLER_203_124
*3412 FILLER_203_1815
*3413 FILLER_203_1879
*3414 FILLER_203_1885
*3415 FILLER_203_1917
*3416 FILLER_203_1933
*3417 FILLER_203_1937
*3418 FILLER_203_2
*3419 FILLER_203_66
*3420 FILLER_203_72
*3421 FILLER_203_937
*3422 FILLER_204_1000
*3423 FILLER_204_1002
*3424 FILLER_204_101
*3425 FILLER_204_107
*3426 FILLER_204_123
*3427 FILLER_204_1815
*3428 FILLER_204_1847
*3429 FILLER_204_1850
*3430 FILLER_204_1914
*3431 FILLER_204_1920
*3432 FILLER_204_1936
*3433 FILLER_204_2
*3434 FILLER_204_34
*3435 FILLER_204_37
*3436 FILLER_204_937
*3437 FILLER_204_969
*3438 FILLER_204_972
*3439 FILLER_204_988
*3440 FILLER_204_996
*3441 FILLER_205_1001
*3442 FILLER_205_104
*3443 FILLER_205_120
*3444 FILLER_205_124
*3445 FILLER_205_1815
*3446 FILLER_205_1879
*3447 FILLER_205_1885
*3448 FILLER_205_1917
*3449 FILLER_205_1933
*3450 FILLER_205_1937
*3451 FILLER_205_2
*3452 FILLER_205_66
*3453 FILLER_205_72
*3454 FILLER_205_937
*3455 FILLER_206_1000
*3456 FILLER_206_1002
*3457 FILLER_206_101
*3458 FILLER_206_107
*3459 FILLER_206_123
*3460 FILLER_206_1815
*3461 FILLER_206_1847
*3462 FILLER_206_1850
*3463 FILLER_206_1914
*3464 FILLER_206_1920
*3465 FILLER_206_1936
*3466 FILLER_206_2
*3467 FILLER_206_34
*3468 FILLER_206_37
*3469 FILLER_206_937
*3470 FILLER_206_969
*3471 FILLER_206_972
*3472 FILLER_206_988
*3473 FILLER_206_996
*3474 FILLER_207_1001
*3475 FILLER_207_104
*3476 FILLER_207_120
*3477 FILLER_207_124
*3478 FILLER_207_1815
*3479 FILLER_207_1879
*3480 FILLER_207_1885
*3481 FILLER_207_1917
*3482 FILLER_207_1933
*3483 FILLER_207_1937
*3484 FILLER_207_2
*3485 FILLER_207_66
*3486 FILLER_207_72
*3487 FILLER_207_937
*3488 FILLER_208_1022
*3489 FILLER_208_104
*3490 FILLER_208_1056
*3491 FILLER_208_1090
*3492 FILLER_208_1124
*3493 FILLER_208_1158
*3494 FILLER_208_1192
*3495 FILLER_208_1226
*3496 FILLER_208_1260
*3497 FILLER_208_1294
*3498 FILLER_208_1328
*3499 FILLER_208_1362
*3500 FILLER_208_138
*3501 FILLER_208_1396
*3502 FILLER_208_1430
*3503 FILLER_208_1464
*3504 FILLER_208_1498
*3505 FILLER_208_1532
*3506 FILLER_208_1566
*3507 FILLER_208_1600
*3508 FILLER_208_1634
*3509 FILLER_208_1668
*3510 FILLER_208_1702
*3511 FILLER_208_172
*3512 FILLER_208_1736
*3513 FILLER_208_1770
*3514 FILLER_208_1804
*3515 FILLER_208_1838
*3516 FILLER_208_1872
*3517 FILLER_208_1906
*3518 FILLER_208_2
*3519 FILLER_208_206
*3520 FILLER_208_240
*3521 FILLER_208_274
*3522 FILLER_208_308
*3523 FILLER_208_342
*3524 FILLER_208_36
*3525 FILLER_208_376
*3526 FILLER_208_410
*3527 FILLER_208_444
*3528 FILLER_208_478
*3529 FILLER_208_512
*3530 FILLER_208_546
*3531 FILLER_208_580
*3532 FILLER_208_614
*3533 FILLER_208_648
*3534 FILLER_208_682
*3535 FILLER_208_70
*3536 FILLER_208_716
*3537 FILLER_208_750
*3538 FILLER_208_784
*3539 FILLER_208_818
*3540 FILLER_208_852
*3541 FILLER_208_886
*3542 FILLER_208_920
*3543 FILLER_208_954
*3544 FILLER_208_988
*3545 FILLER_209_1046
*3546 FILLER_209_1052
*3547 FILLER_209_1116
*3548 FILLER_209_1122
*3549 FILLER_209_1186
*3550 FILLER_209_1192
*3551 FILLER_209_1256
*3552 FILLER_209_1262
*3553 FILLER_209_1326
*3554 FILLER_209_1332
*3555 FILLER_209_136
*3556 FILLER_209_1396
*3557 FILLER_209_1402
*3558 FILLER_209_142
*3559 FILLER_209_1466
*3560 FILLER_209_1472
*3561 FILLER_209_1536
*3562 FILLER_209_1542
*3563 FILLER_209_1606
*3564 FILLER_209_1612
*3565 FILLER_209_1676
*3566 FILLER_209_1682
*3567 FILLER_209_1746
*3568 FILLER_209_1752
*3569 FILLER_209_1816
*3570 FILLER_209_1822
*3571 FILLER_209_1886
*3572 FILLER_209_1892
*3573 FILLER_209_1924
*3574 FILLER_209_1932
*3575 FILLER_209_1936
*3576 FILLER_209_2
*3577 FILLER_209_206
*3578 FILLER_209_212
*3579 FILLER_209_276
*3580 FILLER_209_282
*3581 FILLER_209_346
*3582 FILLER_209_352
*3583 FILLER_209_416
*3584 FILLER_209_422
*3585 FILLER_209_486
*3586 FILLER_209_492
*3587 FILLER_209_556
*3588 FILLER_209_562
*3589 FILLER_209_626
*3590 FILLER_209_632
*3591 FILLER_209_66
*3592 FILLER_209_696
*3593 FILLER_209_702
*3594 FILLER_209_72
*3595 FILLER_209_766
*3596 FILLER_209_772
*3597 FILLER_209_836
*3598 FILLER_209_842
*3599 FILLER_209_906
*3600 FILLER_209_912
*3601 FILLER_209_976
*3602 FILLER_209_982
*3603 FILLER_20_1000
*3604 FILLER_20_1002
*3605 FILLER_20_101
*3606 FILLER_20_107
*3607 FILLER_20_123
*3608 FILLER_20_1815
*3609 FILLER_20_1847
*3610 FILLER_20_1850
*3611 FILLER_20_1914
*3612 FILLER_20_1920
*3613 FILLER_20_1936
*3614 FILLER_20_2
*3615 FILLER_20_34
*3616 FILLER_20_37
*3617 FILLER_20_952
*3618 FILLER_20_956
*3619 FILLER_20_972
*3620 FILLER_20_984
*3621 FILLER_210_101
*3622 FILLER_210_1011
*3623 FILLER_210_1017
*3624 FILLER_210_107
*3625 FILLER_210_1081
*3626 FILLER_210_1087
*3627 FILLER_210_1151
*3628 FILLER_210_1157
*3629 FILLER_210_1221
*3630 FILLER_210_1227
*3631 FILLER_210_1291
*3632 FILLER_210_1297
*3633 FILLER_210_1361
*3634 FILLER_210_1367
*3635 FILLER_210_1431
*3636 FILLER_210_1437
*3637 FILLER_210_1501
*3638 FILLER_210_1507
*3639 FILLER_210_1571
*3640 FILLER_210_1577
*3641 FILLER_210_1641
*3642 FILLER_210_1647
*3643 FILLER_210_171
*3644 FILLER_210_1711
*3645 FILLER_210_1717
*3646 FILLER_210_177
*3647 FILLER_210_1781
*3648 FILLER_210_1787
*3649 FILLER_210_1851
*3650 FILLER_210_1857
*3651 FILLER_210_1921
*3652 FILLER_210_1927
*3653 FILLER_210_1935
*3654 FILLER_210_1937
*3655 FILLER_210_2
*3656 FILLER_210_241
*3657 FILLER_210_247
*3658 FILLER_210_311
*3659 FILLER_210_317
*3660 FILLER_210_34
*3661 FILLER_210_37
*3662 FILLER_210_381
*3663 FILLER_210_387
*3664 FILLER_210_451
*3665 FILLER_210_457
*3666 FILLER_210_521
*3667 FILLER_210_527
*3668 FILLER_210_591
*3669 FILLER_210_597
*3670 FILLER_210_661
*3671 FILLER_210_667
*3672 FILLER_210_731
*3673 FILLER_210_737
*3674 FILLER_210_801
*3675 FILLER_210_807
*3676 FILLER_210_871
*3677 FILLER_210_877
*3678 FILLER_210_941
*3679 FILLER_210_947
*3680 FILLER_211_1046
*3681 FILLER_211_1052
*3682 FILLER_211_1116
*3683 FILLER_211_1122
*3684 FILLER_211_1186
*3685 FILLER_211_1192
*3686 FILLER_211_1256
*3687 FILLER_211_1262
*3688 FILLER_211_1326
*3689 FILLER_211_1332
*3690 FILLER_211_136
*3691 FILLER_211_1396
*3692 FILLER_211_1402
*3693 FILLER_211_142
*3694 FILLER_211_1466
*3695 FILLER_211_1472
*3696 FILLER_211_1536
*3697 FILLER_211_1542
*3698 FILLER_211_1606
*3699 FILLER_211_1612
*3700 FILLER_211_1676
*3701 FILLER_211_1682
*3702 FILLER_211_1746
*3703 FILLER_211_1752
*3704 FILLER_211_1816
*3705 FILLER_211_1822
*3706 FILLER_211_1886
*3707 FILLER_211_1892
*3708 FILLER_211_1924
*3709 FILLER_211_1932
*3710 FILLER_211_1936
*3711 FILLER_211_2
*3712 FILLER_211_206
*3713 FILLER_211_212
*3714 FILLER_211_276
*3715 FILLER_211_282
*3716 FILLER_211_346
*3717 FILLER_211_352
*3718 FILLER_211_416
*3719 FILLER_211_422
*3720 FILLER_211_486
*3721 FILLER_211_492
*3722 FILLER_211_556
*3723 FILLER_211_562
*3724 FILLER_211_626
*3725 FILLER_211_632
*3726 FILLER_211_66
*3727 FILLER_211_696
*3728 FILLER_211_702
*3729 FILLER_211_72
*3730 FILLER_211_766
*3731 FILLER_211_772
*3732 FILLER_211_836
*3733 FILLER_211_842
*3734 FILLER_211_906
*3735 FILLER_211_912
*3736 FILLER_211_976
*3737 FILLER_211_982
*3738 FILLER_212_101
*3739 FILLER_212_1011
*3740 FILLER_212_1017
*3741 FILLER_212_107
*3742 FILLER_212_1081
*3743 FILLER_212_1087
*3744 FILLER_212_1151
*3745 FILLER_212_1157
*3746 FILLER_212_1221
*3747 FILLER_212_1227
*3748 FILLER_212_1291
*3749 FILLER_212_1297
*3750 FILLER_212_1361
*3751 FILLER_212_1367
*3752 FILLER_212_1431
*3753 FILLER_212_1437
*3754 FILLER_212_1501
*3755 FILLER_212_1507
*3756 FILLER_212_1571
*3757 FILLER_212_1577
*3758 FILLER_212_1641
*3759 FILLER_212_1647
*3760 FILLER_212_171
*3761 FILLER_212_1711
*3762 FILLER_212_1717
*3763 FILLER_212_177
*3764 FILLER_212_1781
*3765 FILLER_212_1787
*3766 FILLER_212_1851
*3767 FILLER_212_1857
*3768 FILLER_212_1921
*3769 FILLER_212_1927
*3770 FILLER_212_1935
*3771 FILLER_212_1937
*3772 FILLER_212_2
*3773 FILLER_212_241
*3774 FILLER_212_247
*3775 FILLER_212_311
*3776 FILLER_212_317
*3777 FILLER_212_34
*3778 FILLER_212_37
*3779 FILLER_212_381
*3780 FILLER_212_387
*3781 FILLER_212_451
*3782 FILLER_212_457
*3783 FILLER_212_521
*3784 FILLER_212_527
*3785 FILLER_212_591
*3786 FILLER_212_597
*3787 FILLER_212_661
*3788 FILLER_212_667
*3789 FILLER_212_731
*3790 FILLER_212_737
*3791 FILLER_212_801
*3792 FILLER_212_807
*3793 FILLER_212_871
*3794 FILLER_212_877
*3795 FILLER_212_941
*3796 FILLER_212_947
*3797 FILLER_213_1046
*3798 FILLER_213_1052
*3799 FILLER_213_1116
*3800 FILLER_213_1122
*3801 FILLER_213_1186
*3802 FILLER_213_1192
*3803 FILLER_213_1256
*3804 FILLER_213_1262
*3805 FILLER_213_1326
*3806 FILLER_213_1332
*3807 FILLER_213_136
*3808 FILLER_213_1396
*3809 FILLER_213_1402
*3810 FILLER_213_142
*3811 FILLER_213_1466
*3812 FILLER_213_1472
*3813 FILLER_213_1536
*3814 FILLER_213_1542
*3815 FILLER_213_1606
*3816 FILLER_213_1612
*3817 FILLER_213_1676
*3818 FILLER_213_1682
*3819 FILLER_213_1746
*3820 FILLER_213_1752
*3821 FILLER_213_1816
*3822 FILLER_213_1822
*3823 FILLER_213_1886
*3824 FILLER_213_1892
*3825 FILLER_213_1924
*3826 FILLER_213_1932
*3827 FILLER_213_1936
*3828 FILLER_213_2
*3829 FILLER_213_206
*3830 FILLER_213_212
*3831 FILLER_213_276
*3832 FILLER_213_282
*3833 FILLER_213_346
*3834 FILLER_213_352
*3835 FILLER_213_416
*3836 FILLER_213_422
*3837 FILLER_213_486
*3838 FILLER_213_492
*3839 FILLER_213_556
*3840 FILLER_213_562
*3841 FILLER_213_626
*3842 FILLER_213_632
*3843 FILLER_213_66
*3844 FILLER_213_696
*3845 FILLER_213_702
*3846 FILLER_213_72
*3847 FILLER_213_766
*3848 FILLER_213_772
*3849 FILLER_213_836
*3850 FILLER_213_842
*3851 FILLER_213_906
*3852 FILLER_213_912
*3853 FILLER_213_976
*3854 FILLER_213_982
*3855 FILLER_214_101
*3856 FILLER_214_1011
*3857 FILLER_214_1017
*3858 FILLER_214_107
*3859 FILLER_214_1081
*3860 FILLER_214_1087
*3861 FILLER_214_1151
*3862 FILLER_214_1157
*3863 FILLER_214_1221
*3864 FILLER_214_1227
*3865 FILLER_214_1291
*3866 FILLER_214_1297
*3867 FILLER_214_1361
*3868 FILLER_214_1367
*3869 FILLER_214_1431
*3870 FILLER_214_1437
*3871 FILLER_214_1501
*3872 FILLER_214_1507
*3873 FILLER_214_1571
*3874 FILLER_214_1577
*3875 FILLER_214_1641
*3876 FILLER_214_1647
*3877 FILLER_214_171
*3878 FILLER_214_1711
*3879 FILLER_214_1717
*3880 FILLER_214_177
*3881 FILLER_214_1781
*3882 FILLER_214_1787
*3883 FILLER_214_1851
*3884 FILLER_214_1857
*3885 FILLER_214_1921
*3886 FILLER_214_1927
*3887 FILLER_214_1935
*3888 FILLER_214_1937
*3889 FILLER_214_2
*3890 FILLER_214_241
*3891 FILLER_214_247
*3892 FILLER_214_311
*3893 FILLER_214_317
*3894 FILLER_214_34
*3895 FILLER_214_37
*3896 FILLER_214_381
*3897 FILLER_214_387
*3898 FILLER_214_451
*3899 FILLER_214_457
*3900 FILLER_214_521
*3901 FILLER_214_527
*3902 FILLER_214_591
*3903 FILLER_214_597
*3904 FILLER_214_661
*3905 FILLER_214_667
*3906 FILLER_214_731
*3907 FILLER_214_737
*3908 FILLER_214_801
*3909 FILLER_214_807
*3910 FILLER_214_871
*3911 FILLER_214_877
*3912 FILLER_214_941
*3913 FILLER_214_947
*3914 FILLER_215_1046
*3915 FILLER_215_1052
*3916 FILLER_215_1116
*3917 FILLER_215_1122
*3918 FILLER_215_1186
*3919 FILLER_215_1192
*3920 FILLER_215_1256
*3921 FILLER_215_1262
*3922 FILLER_215_1326
*3923 FILLER_215_1332
*3924 FILLER_215_136
*3925 FILLER_215_1396
*3926 FILLER_215_1402
*3927 FILLER_215_142
*3928 FILLER_215_1466
*3929 FILLER_215_1472
*3930 FILLER_215_1536
*3931 FILLER_215_1542
*3932 FILLER_215_1606
*3933 FILLER_215_1612
*3934 FILLER_215_1676
*3935 FILLER_215_1682
*3936 FILLER_215_1746
*3937 FILLER_215_1752
*3938 FILLER_215_1816
*3939 FILLER_215_1822
*3940 FILLER_215_1886
*3941 FILLER_215_1892
*3942 FILLER_215_1924
*3943 FILLER_215_1932
*3944 FILLER_215_1936
*3945 FILLER_215_2
*3946 FILLER_215_206
*3947 FILLER_215_212
*3948 FILLER_215_276
*3949 FILLER_215_282
*3950 FILLER_215_346
*3951 FILLER_215_352
*3952 FILLER_215_416
*3953 FILLER_215_422
*3954 FILLER_215_486
*3955 FILLER_215_492
*3956 FILLER_215_556
*3957 FILLER_215_562
*3958 FILLER_215_626
*3959 FILLER_215_632
*3960 FILLER_215_66
*3961 FILLER_215_696
*3962 FILLER_215_702
*3963 FILLER_215_72
*3964 FILLER_215_766
*3965 FILLER_215_772
*3966 FILLER_215_836
*3967 FILLER_215_842
*3968 FILLER_215_906
*3969 FILLER_215_912
*3970 FILLER_215_976
*3971 FILLER_215_982
*3972 FILLER_216_101
*3973 FILLER_216_1011
*3974 FILLER_216_1017
*3975 FILLER_216_107
*3976 FILLER_216_1081
*3977 FILLER_216_1087
*3978 FILLER_216_1151
*3979 FILLER_216_1157
*3980 FILLER_216_1221
*3981 FILLER_216_1227
*3982 FILLER_216_1291
*3983 FILLER_216_1297
*3984 FILLER_216_1361
*3985 FILLER_216_1367
*3986 FILLER_216_1431
*3987 FILLER_216_1437
*3988 FILLER_216_1501
*3989 FILLER_216_1507
*3990 FILLER_216_1571
*3991 FILLER_216_1577
*3992 FILLER_216_1641
*3993 FILLER_216_1647
*3994 FILLER_216_171
*3995 FILLER_216_1711
*3996 FILLER_216_1717
*3997 FILLER_216_177
*3998 FILLER_216_1781
*3999 FILLER_216_1787
*4000 FILLER_216_1851
*4001 FILLER_216_1857
*4002 FILLER_216_1921
*4003 FILLER_216_1927
*4004 FILLER_216_1935
*4005 FILLER_216_1937
*4006 FILLER_216_2
*4007 FILLER_216_241
*4008 FILLER_216_247
*4009 FILLER_216_311
*4010 FILLER_216_317
*4011 FILLER_216_34
*4012 FILLER_216_37
*4013 FILLER_216_381
*4014 FILLER_216_387
*4015 FILLER_216_451
*4016 FILLER_216_457
*4017 FILLER_216_521
*4018 FILLER_216_527
*4019 FILLER_216_591
*4020 FILLER_216_597
*4021 FILLER_216_661
*4022 FILLER_216_667
*4023 FILLER_216_731
*4024 FILLER_216_737
*4025 FILLER_216_801
*4026 FILLER_216_807
*4027 FILLER_216_871
*4028 FILLER_216_877
*4029 FILLER_216_941
*4030 FILLER_216_947
*4031 FILLER_217_1046
*4032 FILLER_217_1052
*4033 FILLER_217_1116
*4034 FILLER_217_1122
*4035 FILLER_217_1138
*4036 FILLER_217_1140
*4037 FILLER_217_1175
*4038 FILLER_217_1183
*4039 FILLER_217_1187
*4040 FILLER_217_1189
*4041 FILLER_217_1192
*4042 FILLER_217_1256
*4043 FILLER_217_1262
*4044 FILLER_217_1326
*4045 FILLER_217_1332
*4046 FILLER_217_136
*4047 FILLER_217_1396
*4048 FILLER_217_1402
*4049 FILLER_217_142
*4050 FILLER_217_1466
*4051 FILLER_217_1472
*4052 FILLER_217_1536
*4053 FILLER_217_1542
*4054 FILLER_217_1606
*4055 FILLER_217_1612
*4056 FILLER_217_1676
*4057 FILLER_217_1682
*4058 FILLER_217_1746
*4059 FILLER_217_1752
*4060 FILLER_217_1816
*4061 FILLER_217_1822
*4062 FILLER_217_1886
*4063 FILLER_217_1892
*4064 FILLER_217_1924
*4065 FILLER_217_1932
*4066 FILLER_217_1936
*4067 FILLER_217_2
*4068 FILLER_217_206
*4069 FILLER_217_212
*4070 FILLER_217_276
*4071 FILLER_217_282
*4072 FILLER_217_346
*4073 FILLER_217_352
*4074 FILLER_217_416
*4075 FILLER_217_422
*4076 FILLER_217_486
*4077 FILLER_217_492
*4078 FILLER_217_556
*4079 FILLER_217_562
*4080 FILLER_217_626
*4081 FILLER_217_632
*4082 FILLER_217_66
*4083 FILLER_217_696
*4084 FILLER_217_702
*4085 FILLER_217_72
*4086 FILLER_217_766
*4087 FILLER_217_772
*4088 FILLER_217_780
*4089 FILLER_217_782
*4090 FILLER_217_817
*4091 FILLER_217_833
*4092 FILLER_217_837
*4093 FILLER_217_839
*4094 FILLER_217_842
*4095 FILLER_217_906
*4096 FILLER_217_912
*4097 FILLER_217_976
*4098 FILLER_217_982
*4099 FILLER_218_101
*4100 FILLER_218_1011
*4101 FILLER_218_1017
*4102 FILLER_218_107
*4103 FILLER_218_1081
*4104 FILLER_218_1087
*4105 FILLER_218_1151
*4106 FILLER_218_1157
*4107 FILLER_218_1221
*4108 FILLER_218_1227
*4109 FILLER_218_1291
*4110 FILLER_218_1297
*4111 FILLER_218_1361
*4112 FILLER_218_1367
*4113 FILLER_218_1431
*4114 FILLER_218_1437
*4115 FILLER_218_1501
*4116 FILLER_218_1507
*4117 FILLER_218_1571
*4118 FILLER_218_1577
*4119 FILLER_218_1641
*4120 FILLER_218_1647
*4121 FILLER_218_171
*4122 FILLER_218_1711
*4123 FILLER_218_1717
*4124 FILLER_218_177
*4125 FILLER_218_1781
*4126 FILLER_218_1787
*4127 FILLER_218_1851
*4128 FILLER_218_1857
*4129 FILLER_218_1921
*4130 FILLER_218_1927
*4131 FILLER_218_1935
*4132 FILLER_218_1937
*4133 FILLER_218_2
*4134 FILLER_218_241
*4135 FILLER_218_247
*4136 FILLER_218_311
*4137 FILLER_218_317
*4138 FILLER_218_34
*4139 FILLER_218_37
*4140 FILLER_218_381
*4141 FILLER_218_387
*4142 FILLER_218_451
*4143 FILLER_218_457
*4144 FILLER_218_521
*4145 FILLER_218_527
*4146 FILLER_218_591
*4147 FILLER_218_597
*4148 FILLER_218_661
*4149 FILLER_218_667
*4150 FILLER_218_731
*4151 FILLER_218_737
*4152 FILLER_218_769
*4153 FILLER_218_807
*4154 FILLER_218_823
*4155 FILLER_218_831
*4156 FILLER_218_869
*4157 FILLER_218_873
*4158 FILLER_218_877
*4159 FILLER_218_941
*4160 FILLER_218_947
*4161 FILLER_219_1046
*4162 FILLER_219_1052
*4163 FILLER_219_1054
*4164 FILLER_219_1089
*4165 FILLER_219_1105
*4166 FILLER_219_1113
*4167 FILLER_219_1117
*4168 FILLER_219_1119
*4169 FILLER_219_1122
*4170 FILLER_219_1126
*4171 FILLER_219_1161
*4172 FILLER_219_1177
*4173 FILLER_219_1185
*4174 FILLER_219_1189
*4175 FILLER_219_1192
*4176 FILLER_219_1256
*4177 FILLER_219_1262
*4178 FILLER_219_1326
*4179 FILLER_219_1332
*4180 FILLER_219_136
*4181 FILLER_219_1396
*4182 FILLER_219_1402
*4183 FILLER_219_142
*4184 FILLER_219_1466
*4185 FILLER_219_1472
*4186 FILLER_219_1536
*4187 FILLER_219_1542
*4188 FILLER_219_1606
*4189 FILLER_219_1612
*4190 FILLER_219_1676
*4191 FILLER_219_1682
*4192 FILLER_219_1746
*4193 FILLER_219_1752
*4194 FILLER_219_1816
*4195 FILLER_219_1822
*4196 FILLER_219_1886
*4197 FILLER_219_1892
*4198 FILLER_219_1924
*4199 FILLER_219_1932
*4200 FILLER_219_1936
*4201 FILLER_219_2
*4202 FILLER_219_206
*4203 FILLER_219_212
*4204 FILLER_219_276
*4205 FILLER_219_282
*4206 FILLER_219_346
*4207 FILLER_219_352
*4208 FILLER_219_416
*4209 FILLER_219_422
*4210 FILLER_219_486
*4211 FILLER_219_492
*4212 FILLER_219_556
*4213 FILLER_219_562
*4214 FILLER_219_626
*4215 FILLER_219_632
*4216 FILLER_219_66
*4217 FILLER_219_696
*4218 FILLER_219_702
*4219 FILLER_219_72
*4220 FILLER_219_766
*4221 FILLER_219_772
*4222 FILLER_219_788
*4223 FILLER_219_792
*4224 FILLER_219_794
*4225 FILLER_219_829
*4226 FILLER_219_837
*4227 FILLER_219_839
*4228 FILLER_219_842
*4229 FILLER_219_858
*4230 FILLER_219_866
*4231 FILLER_219_901
*4232 FILLER_219_909
*4233 FILLER_219_912
*4234 FILLER_219_976
*4235 FILLER_219_982
*4236 FILLER_21_104
*4237 FILLER_21_120
*4238 FILLER_21_124
*4239 FILLER_21_1815
*4240 FILLER_21_1879
*4241 FILLER_21_1885
*4242 FILLER_21_1917
*4243 FILLER_21_1933
*4244 FILLER_21_1937
*4245 FILLER_21_2
*4246 FILLER_21_66
*4247 FILLER_21_72
*4248 FILLER_21_937
*4249 FILLER_21_953
*4250 FILLER_21_995
*4251 FILLER_220_1022
*4252 FILLER_220_104
*4253 FILLER_220_1056
*4254 FILLER_220_1090
*4255 FILLER_220_1124
*4256 FILLER_220_1158
*4257 FILLER_220_1192
*4258 FILLER_220_1226
*4259 FILLER_220_1260
*4260 FILLER_220_1294
*4261 FILLER_220_1328
*4262 FILLER_220_1362
*4263 FILLER_220_138
*4264 FILLER_220_1396
*4265 FILLER_220_1430
*4266 FILLER_220_1464
*4267 FILLER_220_1498
*4268 FILLER_220_1532
*4269 FILLER_220_1566
*4270 FILLER_220_1600
*4271 FILLER_220_1634
*4272 FILLER_220_1668
*4273 FILLER_220_1702
*4274 FILLER_220_172
*4275 FILLER_220_1736
*4276 FILLER_220_1770
*4277 FILLER_220_1804
*4278 FILLER_220_1838
*4279 FILLER_220_1872
*4280 FILLER_220_1906
*4281 FILLER_220_2
*4282 FILLER_220_206
*4283 FILLER_220_240
*4284 FILLER_220_274
*4285 FILLER_220_308
*4286 FILLER_220_342
*4287 FILLER_220_36
*4288 FILLER_220_376
*4289 FILLER_220_410
*4290 FILLER_220_444
*4291 FILLER_220_478
*4292 FILLER_220_512
*4293 FILLER_220_546
*4294 FILLER_220_580
*4295 FILLER_220_614
*4296 FILLER_220_648
*4297 FILLER_220_682
*4298 FILLER_220_70
*4299 FILLER_220_716
*4300 FILLER_220_750
*4301 FILLER_220_784
*4302 FILLER_220_818
*4303 FILLER_220_852
*4304 FILLER_220_886
*4305 FILLER_220_902
*4306 FILLER_220_910
*4307 FILLER_220_912
*4308 FILLER_220_917
*4309 FILLER_220_920
*4310 FILLER_220_936
*4311 FILLER_220_944
*4312 FILLER_220_954
*4313 FILLER_220_962
*4314 FILLER_220_964
*4315 FILLER_220_973
*4316 FILLER_220_985
*4317 FILLER_220_988
*4318 FILLER_22_101
*4319 FILLER_22_107
*4320 FILLER_22_123
*4321 FILLER_22_1815
*4322 FILLER_22_1847
*4323 FILLER_22_1850
*4324 FILLER_22_1914
*4325 FILLER_22_1920
*4326 FILLER_22_1936
*4327 FILLER_22_2
*4328 FILLER_22_34
*4329 FILLER_22_37
*4330 FILLER_22_966
*4331 FILLER_22_972
*4332 FILLER_22_982
*4333 FILLER_22_990
*4334 FILLER_22_994
*4335 FILLER_23_1001
*4336 FILLER_23_104
*4337 FILLER_23_120
*4338 FILLER_23_124
*4339 FILLER_23_1815
*4340 FILLER_23_1879
*4341 FILLER_23_1885
*4342 FILLER_23_1917
*4343 FILLER_23_1933
*4344 FILLER_23_1937
*4345 FILLER_23_2
*4346 FILLER_23_66
*4347 FILLER_23_72
*4348 FILLER_23_937
*4349 FILLER_23_953
*4350 FILLER_23_961
*4351 FILLER_23_965
*4352 FILLER_23_972
*4353 FILLER_23_989
*4354 FILLER_23_997
*4355 FILLER_24_1002
*4356 FILLER_24_101
*4357 FILLER_24_107
*4358 FILLER_24_123
*4359 FILLER_24_1815
*4360 FILLER_24_1847
*4361 FILLER_24_1850
*4362 FILLER_24_1914
*4363 FILLER_24_1920
*4364 FILLER_24_1936
*4365 FILLER_24_2
*4366 FILLER_24_34
*4367 FILLER_24_37
*4368 FILLER_24_937
*4369 FILLER_24_953
*4370 FILLER_24_986
*4371 FILLER_25_1000
*4372 FILLER_25_1002
*4373 FILLER_25_104
*4374 FILLER_25_120
*4375 FILLER_25_124
*4376 FILLER_25_1815
*4377 FILLER_25_1879
*4378 FILLER_25_1885
*4379 FILLER_25_1917
*4380 FILLER_25_1933
*4381 FILLER_25_1937
*4382 FILLER_25_2
*4383 FILLER_25_66
*4384 FILLER_25_72
*4385 FILLER_25_937
*4386 FILLER_25_953
*4387 FILLER_25_988
*4388 FILLER_25_996
*4389 FILLER_26_1001
*4390 FILLER_26_101
*4391 FILLER_26_107
*4392 FILLER_26_123
*4393 FILLER_26_1815
*4394 FILLER_26_1847
*4395 FILLER_26_1850
*4396 FILLER_26_1914
*4397 FILLER_26_1920
*4398 FILLER_26_1936
*4399 FILLER_26_2
*4400 FILLER_26_34
*4401 FILLER_26_37
*4402 FILLER_26_937
*4403 FILLER_26_969
*4404 FILLER_27_104
*4405 FILLER_27_120
*4406 FILLER_27_124
*4407 FILLER_27_1815
*4408 FILLER_27_1879
*4409 FILLER_27_1885
*4410 FILLER_27_1917
*4411 FILLER_27_1933
*4412 FILLER_27_1937
*4413 FILLER_27_2
*4414 FILLER_27_66
*4415 FILLER_27_72
*4416 FILLER_27_946
*4417 FILLER_27_962
*4418 FILLER_27_970
*4419 FILLER_27_987
*4420 FILLER_28_101
*4421 FILLER_28_107
*4422 FILLER_28_123
*4423 FILLER_28_1815
*4424 FILLER_28_1847
*4425 FILLER_28_1850
*4426 FILLER_28_1914
*4427 FILLER_28_1920
*4428 FILLER_28_1936
*4429 FILLER_28_2
*4430 FILLER_28_34
*4431 FILLER_28_37
*4432 FILLER_28_937
*4433 FILLER_28_939
*4434 FILLER_28_955
*4435 FILLER_28_963
*4436 FILLER_28_967
*4437 FILLER_28_969
*4438 FILLER_28_972
*4439 FILLER_28_988
*4440 FILLER_28_992
*4441 FILLER_29_104
*4442 FILLER_29_120
*4443 FILLER_29_124
*4444 FILLER_29_1815
*4445 FILLER_29_1879
*4446 FILLER_29_1885
*4447 FILLER_29_1917
*4448 FILLER_29_1933
*4449 FILLER_29_1937
*4450 FILLER_29_2
*4451 FILLER_29_66
*4452 FILLER_29_72
*4453 FILLER_29_951
*4454 FILLER_29_983
*4455 FILLER_29_999
*4456 FILLER_2_101
*4457 FILLER_2_107
*4458 FILLER_2_1191
*4459 FILLER_2_1223
*4460 FILLER_2_1227
*4461 FILLER_2_1291
*4462 FILLER_2_1297
*4463 FILLER_2_1361
*4464 FILLER_2_1367
*4465 FILLER_2_1375
*4466 FILLER_2_1413
*4467 FILLER_2_1429
*4468 FILLER_2_1433
*4469 FILLER_2_1437
*4470 FILLER_2_1456
*4471 FILLER_2_1464
*4472 FILLER_2_1483
*4473 FILLER_2_1499
*4474 FILLER_2_1503
*4475 FILLER_2_1507
*4476 FILLER_2_1571
*4477 FILLER_2_1577
*4478 FILLER_2_1641
*4479 FILLER_2_1647
*4480 FILLER_2_1651
*4481 FILLER_2_1687
*4482 FILLER_2_1703
*4483 FILLER_2_171
*4484 FILLER_2_1711
*4485 FILLER_2_1717
*4486 FILLER_2_177
*4487 FILLER_2_1781
*4488 FILLER_2_1787
*4489 FILLER_2_1851
*4490 FILLER_2_1857
*4491 FILLER_2_1921
*4492 FILLER_2_1927
*4493 FILLER_2_193
*4494 FILLER_2_1935
*4495 FILLER_2_1937
*4496 FILLER_2_2
*4497 FILLER_2_201
*4498 FILLER_2_237
*4499 FILLER_2_247
*4500 FILLER_2_263
*4501 FILLER_2_267
*4502 FILLER_2_303
*4503 FILLER_2_311
*4504 FILLER_2_317
*4505 FILLER_2_333
*4506 FILLER_2_34
*4507 FILLER_2_341
*4508 FILLER_2_37
*4509 FILLER_2_377
*4510 FILLER_2_402
*4511 FILLER_2_418
*4512 FILLER_2_420
*4513 FILLER_2_457
*4514 FILLER_2_473
*4515 FILLER_2_509
*4516 FILLER_2_527
*4517 FILLER_2_591
*4518 FILLER_2_597
*4519 FILLER_2_661
*4520 FILLER_2_667
*4521 FILLER_2_683
*4522 FILLER_2_725
*4523 FILLER_2_733
*4524 FILLER_2_737
*4525 FILLER_2_769
*4526 FILLER_2_785
*4527 FILLER_2_793
*4528 FILLER_2_807
*4529 FILLER_30_1001
*4530 FILLER_30_101
*4531 FILLER_30_107
*4532 FILLER_30_123
*4533 FILLER_30_1815
*4534 FILLER_30_1847
*4535 FILLER_30_1850
*4536 FILLER_30_1914
*4537 FILLER_30_1920
*4538 FILLER_30_1936
*4539 FILLER_30_2
*4540 FILLER_30_34
*4541 FILLER_30_37
*4542 FILLER_30_966
*4543 FILLER_31_1001
*4544 FILLER_31_104
*4545 FILLER_31_120
*4546 FILLER_31_124
*4547 FILLER_31_1815
*4548 FILLER_31_1879
*4549 FILLER_31_1885
*4550 FILLER_31_1917
*4551 FILLER_31_1933
*4552 FILLER_31_1937
*4553 FILLER_31_2
*4554 FILLER_31_66
*4555 FILLER_31_72
*4556 FILLER_31_937
*4557 FILLER_32_101
*4558 FILLER_32_107
*4559 FILLER_32_123
*4560 FILLER_32_1815
*4561 FILLER_32_1847
*4562 FILLER_32_1850
*4563 FILLER_32_1914
*4564 FILLER_32_1920
*4565 FILLER_32_1936
*4566 FILLER_32_2
*4567 FILLER_32_34
*4568 FILLER_32_37
*4569 FILLER_32_937
*4570 FILLER_32_969
*4571 FILLER_32_972
*4572 FILLER_32_988
*4573 FILLER_32_992
*4574 FILLER_32_994
*4575 FILLER_33_1001
*4576 FILLER_33_104
*4577 FILLER_33_120
*4578 FILLER_33_124
*4579 FILLER_33_1815
*4580 FILLER_33_1879
*4581 FILLER_33_1885
*4582 FILLER_33_1917
*4583 FILLER_33_1933
*4584 FILLER_33_1937
*4585 FILLER_33_2
*4586 FILLER_33_66
*4587 FILLER_33_72
*4588 FILLER_33_937
*4589 FILLER_34_101
*4590 FILLER_34_107
*4591 FILLER_34_123
*4592 FILLER_34_1815
*4593 FILLER_34_1847
*4594 FILLER_34_1850
*4595 FILLER_34_1914
*4596 FILLER_34_1920
*4597 FILLER_34_1936
*4598 FILLER_34_2
*4599 FILLER_34_34
*4600 FILLER_34_37
*4601 FILLER_34_937
*4602 FILLER_34_969
*4603 FILLER_34_972
*4604 FILLER_34_988
*4605 FILLER_35_1001
*4606 FILLER_35_104
*4607 FILLER_35_120
*4608 FILLER_35_124
*4609 FILLER_35_1815
*4610 FILLER_35_1879
*4611 FILLER_35_1885
*4612 FILLER_35_1917
*4613 FILLER_35_1933
*4614 FILLER_35_1937
*4615 FILLER_35_2
*4616 FILLER_35_66
*4617 FILLER_35_72
*4618 FILLER_35_945
*4619 FILLER_35_977
*4620 FILLER_35_993
*4621 FILLER_36_101
*4622 FILLER_36_107
*4623 FILLER_36_123
*4624 FILLER_36_1815
*4625 FILLER_36_1847
*4626 FILLER_36_1850
*4627 FILLER_36_1914
*4628 FILLER_36_1920
*4629 FILLER_36_1936
*4630 FILLER_36_2
*4631 FILLER_36_34
*4632 FILLER_36_37
*4633 FILLER_36_937
*4634 FILLER_36_969
*4635 FILLER_36_972
*4636 FILLER_36_988
*4637 FILLER_37_1001
*4638 FILLER_37_104
*4639 FILLER_37_120
*4640 FILLER_37_124
*4641 FILLER_37_1815
*4642 FILLER_37_1879
*4643 FILLER_37_1885
*4644 FILLER_37_1917
*4645 FILLER_37_1933
*4646 FILLER_37_1937
*4647 FILLER_37_2
*4648 FILLER_37_66
*4649 FILLER_37_72
*4650 FILLER_37_937
*4651 FILLER_38_1000
*4652 FILLER_38_1002
*4653 FILLER_38_101
*4654 FILLER_38_107
*4655 FILLER_38_123
*4656 FILLER_38_1815
*4657 FILLER_38_1847
*4658 FILLER_38_1850
*4659 FILLER_38_1914
*4660 FILLER_38_1920
*4661 FILLER_38_1936
*4662 FILLER_38_2
*4663 FILLER_38_34
*4664 FILLER_38_37
*4665 FILLER_38_937
*4666 FILLER_38_969
*4667 FILLER_38_972
*4668 FILLER_38_988
*4669 FILLER_38_996
*4670 FILLER_39_1001
*4671 FILLER_39_104
*4672 FILLER_39_120
*4673 FILLER_39_124
*4674 FILLER_39_1815
*4675 FILLER_39_1879
*4676 FILLER_39_1885
*4677 FILLER_39_1917
*4678 FILLER_39_1933
*4679 FILLER_39_1937
*4680 FILLER_39_2
*4681 FILLER_39_66
*4682 FILLER_39_72
*4683 FILLER_39_937
*4684 FILLER_3_1033
*4685 FILLER_3_1129
*4686 FILLER_3_1179
*4687 FILLER_3_1187
*4688 FILLER_3_1189
*4689 FILLER_3_1192
*4690 FILLER_3_1256
*4691 FILLER_3_1262
*4692 FILLER_3_1278
*4693 FILLER_3_1294
*4694 FILLER_3_1326
*4695 FILLER_3_1332
*4696 FILLER_3_136
*4697 FILLER_3_1396
*4698 FILLER_3_142
*4699 FILLER_3_1451
*4700 FILLER_3_1453
*4701 FILLER_3_1469
*4702 FILLER_3_1472
*4703 FILLER_3_1536
*4704 FILLER_3_1542
*4705 FILLER_3_1606
*4706 FILLER_3_1612
*4707 FILLER_3_1676
*4708 FILLER_3_1682
*4709 FILLER_3_1746
*4710 FILLER_3_1752
*4711 FILLER_3_1816
*4712 FILLER_3_1822
*4713 FILLER_3_1886
*4714 FILLER_3_1892
*4715 FILLER_3_1924
*4716 FILLER_3_1932
*4717 FILLER_3_1936
*4718 FILLER_3_2
*4719 FILLER_3_206
*4720 FILLER_3_212
*4721 FILLER_3_276
*4722 FILLER_3_282
*4723 FILLER_3_346
*4724 FILLER_3_352
*4725 FILLER_3_384
*4726 FILLER_3_400
*4727 FILLER_3_419
*4728 FILLER_3_422
*4729 FILLER_3_445
*4730 FILLER_3_481
*4731 FILLER_3_489
*4732 FILLER_3_492
*4733 FILLER_3_556
*4734 FILLER_3_562
*4735 FILLER_3_626
*4736 FILLER_3_632
*4737 FILLER_3_66
*4738 FILLER_3_696
*4739 FILLER_3_702
*4740 FILLER_3_72
*4741 FILLER_3_766
*4742 FILLER_3_772
*4743 FILLER_3_788
*4744 FILLER_3_790
*4745 FILLER_3_927
*4746 FILLER_3_963
*4747 FILLER_3_982
*4748 FILLER_3_984
*4749 FILLER_40_1000
*4750 FILLER_40_1002
*4751 FILLER_40_101
*4752 FILLER_40_107
*4753 FILLER_40_123
*4754 FILLER_40_1815
*4755 FILLER_40_1847
*4756 FILLER_40_1850
*4757 FILLER_40_1914
*4758 FILLER_40_1920
*4759 FILLER_40_1936
*4760 FILLER_40_2
*4761 FILLER_40_34
*4762 FILLER_40_37
*4763 FILLER_40_937
*4764 FILLER_40_969
*4765 FILLER_40_972
*4766 FILLER_40_988
*4767 FILLER_40_996
*4768 FILLER_41_104
*4769 FILLER_41_120
*4770 FILLER_41_124
*4771 FILLER_41_1815
*4772 FILLER_41_1879
*4773 FILLER_41_1885
*4774 FILLER_41_1917
*4775 FILLER_41_1933
*4776 FILLER_41_1937
*4777 FILLER_41_2
*4778 FILLER_41_66
*4779 FILLER_41_72
*4780 FILLER_41_987
*4781 FILLER_42_1000
*4782 FILLER_42_1002
*4783 FILLER_42_101
*4784 FILLER_42_107
*4785 FILLER_42_123
*4786 FILLER_42_1815
*4787 FILLER_42_1847
*4788 FILLER_42_1850
*4789 FILLER_42_1914
*4790 FILLER_42_1920
*4791 FILLER_42_1936
*4792 FILLER_42_2
*4793 FILLER_42_34
*4794 FILLER_42_37
*4795 FILLER_42_955
*4796 FILLER_42_963
*4797 FILLER_42_967
*4798 FILLER_42_969
*4799 FILLER_42_972
*4800 FILLER_42_988
*4801 FILLER_42_996
*4802 FILLER_43_1001
*4803 FILLER_43_104
*4804 FILLER_43_120
*4805 FILLER_43_124
*4806 FILLER_43_1815
*4807 FILLER_43_1879
*4808 FILLER_43_1885
*4809 FILLER_43_1917
*4810 FILLER_43_1933
*4811 FILLER_43_1937
*4812 FILLER_43_2
*4813 FILLER_43_66
*4814 FILLER_43_72
*4815 FILLER_43_937
*4816 FILLER_44_1000
*4817 FILLER_44_1002
*4818 FILLER_44_101
*4819 FILLER_44_107
*4820 FILLER_44_123
*4821 FILLER_44_1815
*4822 FILLER_44_1847
*4823 FILLER_44_1850
*4824 FILLER_44_1914
*4825 FILLER_44_1920
*4826 FILLER_44_1936
*4827 FILLER_44_2
*4828 FILLER_44_34
*4829 FILLER_44_37
*4830 FILLER_44_937
*4831 FILLER_44_969
*4832 FILLER_44_972
*4833 FILLER_44_988
*4834 FILLER_44_996
*4835 FILLER_45_1001
*4836 FILLER_45_104
*4837 FILLER_45_120
*4838 FILLER_45_124
*4839 FILLER_45_1815
*4840 FILLER_45_1879
*4841 FILLER_45_1885
*4842 FILLER_45_1917
*4843 FILLER_45_1933
*4844 FILLER_45_1937
*4845 FILLER_45_2
*4846 FILLER_45_66
*4847 FILLER_45_72
*4848 FILLER_45_937
*4849 FILLER_46_101
*4850 FILLER_46_107
*4851 FILLER_46_123
*4852 FILLER_46_1815
*4853 FILLER_46_1847
*4854 FILLER_46_1850
*4855 FILLER_46_1914
*4856 FILLER_46_1920
*4857 FILLER_46_1936
*4858 FILLER_46_2
*4859 FILLER_46_34
*4860 FILLER_46_37
*4861 FILLER_46_937
*4862 FILLER_46_969
*4863 FILLER_46_972
*4864 FILLER_46_988
*4865 FILLER_46_992
*4866 FILLER_47_104
*4867 FILLER_47_120
*4868 FILLER_47_124
*4869 FILLER_47_1815
*4870 FILLER_47_1879
*4871 FILLER_47_1885
*4872 FILLER_47_1917
*4873 FILLER_47_1933
*4874 FILLER_47_1937
*4875 FILLER_47_2
*4876 FILLER_47_66
*4877 FILLER_47_72
*4878 FILLER_47_937
*4879 FILLER_48_1000
*4880 FILLER_48_1002
*4881 FILLER_48_101
*4882 FILLER_48_107
*4883 FILLER_48_123
*4884 FILLER_48_1815
*4885 FILLER_48_1847
*4886 FILLER_48_1850
*4887 FILLER_48_1914
*4888 FILLER_48_1920
*4889 FILLER_48_1936
*4890 FILLER_48_2
*4891 FILLER_48_34
*4892 FILLER_48_37
*4893 FILLER_48_937
*4894 FILLER_48_969
*4895 FILLER_48_972
*4896 FILLER_48_988
*4897 FILLER_48_996
*4898 FILLER_49_1001
*4899 FILLER_49_104
*4900 FILLER_49_120
*4901 FILLER_49_124
*4902 FILLER_49_1815
*4903 FILLER_49_1879
*4904 FILLER_49_1885
*4905 FILLER_49_1917
*4906 FILLER_49_1933
*4907 FILLER_49_1937
*4908 FILLER_49_2
*4909 FILLER_49_66
*4910 FILLER_49_72
*4911 FILLER_49_937
*4912 FILLER_4_101
*4913 FILLER_4_1013
*4914 FILLER_4_107
*4915 FILLER_4_1191
*4916 FILLER_4_1223
*4917 FILLER_4_1227
*4918 FILLER_4_1291
*4919 FILLER_4_1297
*4920 FILLER_4_1361
*4921 FILLER_4_1367
*4922 FILLER_4_1433
*4923 FILLER_4_1437
*4924 FILLER_4_1469
*4925 FILLER_4_1491
*4926 FILLER_4_1499
*4927 FILLER_4_1503
*4928 FILLER_4_1507
*4929 FILLER_4_1571
*4930 FILLER_4_1577
*4931 FILLER_4_1641
*4932 FILLER_4_1647
*4933 FILLER_4_171
*4934 FILLER_4_1711
*4935 FILLER_4_1717
*4936 FILLER_4_177
*4937 FILLER_4_1781
*4938 FILLER_4_1787
*4939 FILLER_4_1851
*4940 FILLER_4_1857
*4941 FILLER_4_1921
*4942 FILLER_4_1927
*4943 FILLER_4_1935
*4944 FILLER_4_1937
*4945 FILLER_4_2
*4946 FILLER_4_241
*4947 FILLER_4_247
*4948 FILLER_4_311
*4949 FILLER_4_317
*4950 FILLER_4_34
*4951 FILLER_4_37
*4952 FILLER_4_381
*4953 FILLER_4_387
*4954 FILLER_4_403
*4955 FILLER_4_407
*4956 FILLER_4_438
*4957 FILLER_4_454
*4958 FILLER_4_457
*4959 FILLER_4_521
*4960 FILLER_4_527
*4961 FILLER_4_591
*4962 FILLER_4_597
*4963 FILLER_4_661
*4964 FILLER_4_667
*4965 FILLER_4_731
*4966 FILLER_4_737
*4967 FILLER_4_801
*4968 FILLER_4_807
*4969 FILLER_4_811
*4970 FILLER_4_947
*4971 FILLER_4_949
*4972 FILLER_50_1000
*4973 FILLER_50_1002
*4974 FILLER_50_101
*4975 FILLER_50_107
*4976 FILLER_50_123
*4977 FILLER_50_1815
*4978 FILLER_50_1847
*4979 FILLER_50_1850
*4980 FILLER_50_1914
*4981 FILLER_50_1920
*4982 FILLER_50_1936
*4983 FILLER_50_2
*4984 FILLER_50_34
*4985 FILLER_50_37
*4986 FILLER_50_937
*4987 FILLER_50_969
*4988 FILLER_50_972
*4989 FILLER_50_988
*4990 FILLER_50_996
*4991 FILLER_51_1001
*4992 FILLER_51_104
*4993 FILLER_51_120
*4994 FILLER_51_124
*4995 FILLER_51_1815
*4996 FILLER_51_1879
*4997 FILLER_51_1885
*4998 FILLER_51_1917
*4999 FILLER_51_1933
*5000 FILLER_51_1937
*5001 FILLER_51_2
*5002 FILLER_51_66
*5003 FILLER_51_72
*5004 FILLER_51_937
*5005 FILLER_52_1000
*5006 FILLER_52_1002
*5007 FILLER_52_101
*5008 FILLER_52_107
*5009 FILLER_52_123
*5010 FILLER_52_1815
*5011 FILLER_52_1847
*5012 FILLER_52_1850
*5013 FILLER_52_1914
*5014 FILLER_52_1920
*5015 FILLER_52_1936
*5016 FILLER_52_2
*5017 FILLER_52_34
*5018 FILLER_52_37
*5019 FILLER_52_937
*5020 FILLER_52_969
*5021 FILLER_52_972
*5022 FILLER_52_988
*5023 FILLER_52_996
*5024 FILLER_53_104
*5025 FILLER_53_120
*5026 FILLER_53_124
*5027 FILLER_53_1815
*5028 FILLER_53_1879
*5029 FILLER_53_1885
*5030 FILLER_53_1917
*5031 FILLER_53_1933
*5032 FILLER_53_1937
*5033 FILLER_53_2
*5034 FILLER_53_66
*5035 FILLER_53_72
*5036 FILLER_53_937
*5037 FILLER_53_969
*5038 FILLER_53_985
*5039 FILLER_53_987
*5040 FILLER_54_1000
*5041 FILLER_54_1002
*5042 FILLER_54_101
*5043 FILLER_54_107
*5044 FILLER_54_123
*5045 FILLER_54_1815
*5046 FILLER_54_1847
*5047 FILLER_54_1850
*5048 FILLER_54_1914
*5049 FILLER_54_1920
*5050 FILLER_54_1936
*5051 FILLER_54_2
*5052 FILLER_54_34
*5053 FILLER_54_37
*5054 FILLER_54_937
*5055 FILLER_54_969
*5056 FILLER_54_972
*5057 FILLER_54_988
*5058 FILLER_54_996
*5059 FILLER_55_1002
*5060 FILLER_55_104
*5061 FILLER_55_120
*5062 FILLER_55_124
*5063 FILLER_55_1815
*5064 FILLER_55_1879
*5065 FILLER_55_1885
*5066 FILLER_55_1917
*5067 FILLER_55_1933
*5068 FILLER_55_1937
*5069 FILLER_55_2
*5070 FILLER_55_66
*5071 FILLER_55_72
*5072 FILLER_55_937
*5073 FILLER_55_945
*5074 FILLER_55_949
*5075 FILLER_55_951
*5076 FILLER_56_1000
*5077 FILLER_56_1002
*5078 FILLER_56_101
*5079 FILLER_56_107
*5080 FILLER_56_123
*5081 FILLER_56_1815
*5082 FILLER_56_1847
*5083 FILLER_56_1850
*5084 FILLER_56_1914
*5085 FILLER_56_1920
*5086 FILLER_56_1936
*5087 FILLER_56_2
*5088 FILLER_56_34
*5089 FILLER_56_37
*5090 FILLER_56_937
*5091 FILLER_56_969
*5092 FILLER_56_972
*5093 FILLER_56_988
*5094 FILLER_56_996
*5095 FILLER_57_1002
*5096 FILLER_57_104
*5097 FILLER_57_120
*5098 FILLER_57_124
*5099 FILLER_57_1815
*5100 FILLER_57_1879
*5101 FILLER_57_1885
*5102 FILLER_57_1917
*5103 FILLER_57_1933
*5104 FILLER_57_1937
*5105 FILLER_57_2
*5106 FILLER_57_66
*5107 FILLER_57_72
*5108 FILLER_57_937
*5109 FILLER_57_945
*5110 FILLER_57_949
*5111 FILLER_57_951
*5112 FILLER_58_1000
*5113 FILLER_58_1002
*5114 FILLER_58_101
*5115 FILLER_58_107
*5116 FILLER_58_123
*5117 FILLER_58_1815
*5118 FILLER_58_1847
*5119 FILLER_58_1850
*5120 FILLER_58_1914
*5121 FILLER_58_1920
*5122 FILLER_58_1936
*5123 FILLER_58_2
*5124 FILLER_58_34
*5125 FILLER_58_37
*5126 FILLER_58_937
*5127 FILLER_58_969
*5128 FILLER_58_972
*5129 FILLER_58_988
*5130 FILLER_58_996
*5131 FILLER_59_1001
*5132 FILLER_59_104
*5133 FILLER_59_120
*5134 FILLER_59_124
*5135 FILLER_59_1829
*5136 FILLER_59_1861
*5137 FILLER_59_1877
*5138 FILLER_59_1881
*5139 FILLER_59_1885
*5140 FILLER_59_1917
*5141 FILLER_59_1933
*5142 FILLER_59_1937
*5143 FILLER_59_2
*5144 FILLER_59_66
*5145 FILLER_59_72
*5146 FILLER_59_937
*5147 FILLER_5_1029
*5148 FILLER_5_1031
*5149 FILLER_5_1122
*5150 FILLER_5_1175
*5151 FILLER_5_1183
*5152 FILLER_5_1187
*5153 FILLER_5_1189
*5154 FILLER_5_1192
*5155 FILLER_5_1256
*5156 FILLER_5_1262
*5157 FILLER_5_1326
*5158 FILLER_5_1332
*5159 FILLER_5_136
*5160 FILLER_5_1396
*5161 FILLER_5_1402
*5162 FILLER_5_142
*5163 FILLER_5_1466
*5164 FILLER_5_1472
*5165 FILLER_5_1536
*5166 FILLER_5_1542
*5167 FILLER_5_1606
*5168 FILLER_5_1612
*5169 FILLER_5_1676
*5170 FILLER_5_1682
*5171 FILLER_5_1746
*5172 FILLER_5_1752
*5173 FILLER_5_1816
*5174 FILLER_5_1822
*5175 FILLER_5_1886
*5176 FILLER_5_1892
*5177 FILLER_5_1924
*5178 FILLER_5_1932
*5179 FILLER_5_1936
*5180 FILLER_5_2
*5181 FILLER_5_206
*5182 FILLER_5_212
*5183 FILLER_5_276
*5184 FILLER_5_282
*5185 FILLER_5_346
*5186 FILLER_5_352
*5187 FILLER_5_416
*5188 FILLER_5_422
*5189 FILLER_5_486
*5190 FILLER_5_492
*5191 FILLER_5_556
*5192 FILLER_5_562
*5193 FILLER_5_626
*5194 FILLER_5_632
*5195 FILLER_5_66
*5196 FILLER_5_696
*5197 FILLER_5_702
*5198 FILLER_5_72
*5199 FILLER_5_766
*5200 FILLER_5_772
*5201 FILLER_5_804
*5202 FILLER_60_1000
*5203 FILLER_60_1002
*5204 FILLER_60_101
*5205 FILLER_60_107
*5206 FILLER_60_123
*5207 FILLER_60_1815
*5208 FILLER_60_1847
*5209 FILLER_60_1850
*5210 FILLER_60_1914
*5211 FILLER_60_1920
*5212 FILLER_60_1936
*5213 FILLER_60_2
*5214 FILLER_60_34
*5215 FILLER_60_37
*5216 FILLER_60_937
*5217 FILLER_60_969
*5218 FILLER_60_972
*5219 FILLER_60_988
*5220 FILLER_60_996
*5221 FILLER_61_1001
*5222 FILLER_61_104
*5223 FILLER_61_120
*5224 FILLER_61_124
*5225 FILLER_61_1815
*5226 FILLER_61_1879
*5227 FILLER_61_1885
*5228 FILLER_61_1917
*5229 FILLER_61_1933
*5230 FILLER_61_1937
*5231 FILLER_61_2
*5232 FILLER_61_66
*5233 FILLER_61_72
*5234 FILLER_61_937
*5235 FILLER_62_1000
*5236 FILLER_62_1002
*5237 FILLER_62_101
*5238 FILLER_62_107
*5239 FILLER_62_123
*5240 FILLER_62_1815
*5241 FILLER_62_1847
*5242 FILLER_62_1850
*5243 FILLER_62_1914
*5244 FILLER_62_1920
*5245 FILLER_62_1936
*5246 FILLER_62_2
*5247 FILLER_62_34
*5248 FILLER_62_37
*5249 FILLER_62_937
*5250 FILLER_62_969
*5251 FILLER_62_972
*5252 FILLER_62_988
*5253 FILLER_62_996
*5254 FILLER_63_104
*5255 FILLER_63_120
*5256 FILLER_63_124
*5257 FILLER_63_1815
*5258 FILLER_63_1879
*5259 FILLER_63_1885
*5260 FILLER_63_1917
*5261 FILLER_63_1933
*5262 FILLER_63_1937
*5263 FILLER_63_2
*5264 FILLER_63_66
*5265 FILLER_63_72
*5266 FILLER_63_937
*5267 FILLER_63_969
*5268 FILLER_63_973
*5269 FILLER_64_1000
*5270 FILLER_64_1002
*5271 FILLER_64_101
*5272 FILLER_64_107
*5273 FILLER_64_123
*5274 FILLER_64_1815
*5275 FILLER_64_1847
*5276 FILLER_64_1850
*5277 FILLER_64_1914
*5278 FILLER_64_1920
*5279 FILLER_64_1936
*5280 FILLER_64_2
*5281 FILLER_64_34
*5282 FILLER_64_37
*5283 FILLER_64_937
*5284 FILLER_64_969
*5285 FILLER_64_972
*5286 FILLER_64_988
*5287 FILLER_64_996
*5288 FILLER_65_1001
*5289 FILLER_65_104
*5290 FILLER_65_120
*5291 FILLER_65_124
*5292 FILLER_65_1815
*5293 FILLER_65_1879
*5294 FILLER_65_1885
*5295 FILLER_65_1917
*5296 FILLER_65_1933
*5297 FILLER_65_1937
*5298 FILLER_65_2
*5299 FILLER_65_66
*5300 FILLER_65_72
*5301 FILLER_65_937
*5302 FILLER_66_101
*5303 FILLER_66_107
*5304 FILLER_66_123
*5305 FILLER_66_1815
*5306 FILLER_66_1847
*5307 FILLER_66_1850
*5308 FILLER_66_1914
*5309 FILLER_66_1920
*5310 FILLER_66_1936
*5311 FILLER_66_2
*5312 FILLER_66_34
*5313 FILLER_66_37
*5314 FILLER_66_937
*5315 FILLER_66_969
*5316 FILLER_66_972
*5317 FILLER_66_988
*5318 FILLER_66_996
*5319 FILLER_67_104
*5320 FILLER_67_120
*5321 FILLER_67_124
*5322 FILLER_67_1815
*5323 FILLER_67_1879
*5324 FILLER_67_1885
*5325 FILLER_67_1917
*5326 FILLER_67_1933
*5327 FILLER_67_1937
*5328 FILLER_67_2
*5329 FILLER_67_66
*5330 FILLER_67_72
*5331 FILLER_67_987
*5332 FILLER_68_1000
*5333 FILLER_68_1002
*5334 FILLER_68_101
*5335 FILLER_68_107
*5336 FILLER_68_123
*5337 FILLER_68_1815
*5338 FILLER_68_1847
*5339 FILLER_68_1850
*5340 FILLER_68_1914
*5341 FILLER_68_1920
*5342 FILLER_68_1936
*5343 FILLER_68_2
*5344 FILLER_68_34
*5345 FILLER_68_37
*5346 FILLER_68_937
*5347 FILLER_68_969
*5348 FILLER_68_972
*5349 FILLER_68_988
*5350 FILLER_68_996
*5351 FILLER_69_104
*5352 FILLER_69_120
*5353 FILLER_69_124
*5354 FILLER_69_1815
*5355 FILLER_69_1879
*5356 FILLER_69_1885
*5357 FILLER_69_1917
*5358 FILLER_69_1933
*5359 FILLER_69_1937
*5360 FILLER_69_2
*5361 FILLER_69_66
*5362 FILLER_69_72
*5363 FILLER_69_937
*5364 FILLER_69_969
*5365 FILLER_69_985
*5366 FILLER_69_993
*5367 FILLER_69_997
*5368 FILLER_6_101
*5369 FILLER_6_107
*5370 FILLER_6_1165
*5371 FILLER_6_1198
*5372 FILLER_6_1206
*5373 FILLER_6_1208
*5374 FILLER_6_1217
*5375 FILLER_6_1227
*5376 FILLER_6_1236
*5377 FILLER_6_1268
*5378 FILLER_6_1284
*5379 FILLER_6_1292
*5380 FILLER_6_1294
*5381 FILLER_6_1297
*5382 FILLER_6_1361
*5383 FILLER_6_1367
*5384 FILLER_6_1431
*5385 FILLER_6_1437
*5386 FILLER_6_1501
*5387 FILLER_6_1507
*5388 FILLER_6_1539
*5389 FILLER_6_1555
*5390 FILLER_6_1563
*5391 FILLER_6_1577
*5392 FILLER_6_1641
*5393 FILLER_6_1647
*5394 FILLER_6_1659
*5395 FILLER_6_1668
*5396 FILLER_6_1700
*5397 FILLER_6_1704
*5398 FILLER_6_1706
*5399 FILLER_6_171
*5400 FILLER_6_1717
*5401 FILLER_6_177
*5402 FILLER_6_1781
*5403 FILLER_6_1787
*5404 FILLER_6_1851
*5405 FILLER_6_1857
*5406 FILLER_6_1921
*5407 FILLER_6_1927
*5408 FILLER_6_193
*5409 FILLER_6_1935
*5410 FILLER_6_1937
*5411 FILLER_6_2
*5412 FILLER_6_201
*5413 FILLER_6_205
*5414 FILLER_6_214
*5415 FILLER_6_230
*5416 FILLER_6_238
*5417 FILLER_6_242
*5418 FILLER_6_244
*5419 FILLER_6_247
*5420 FILLER_6_255
*5421 FILLER_6_264
*5422 FILLER_6_274
*5423 FILLER_6_306
*5424 FILLER_6_314
*5425 FILLER_6_317
*5426 FILLER_6_333
*5427 FILLER_6_34
*5428 FILLER_6_341
*5429 FILLER_6_343
*5430 FILLER_6_352
*5431 FILLER_6_37
*5432 FILLER_6_384
*5433 FILLER_6_387
*5434 FILLER_6_451
*5435 FILLER_6_457
*5436 FILLER_6_521
*5437 FILLER_6_527
*5438 FILLER_6_591
*5439 FILLER_6_597
*5440 FILLER_6_661
*5441 FILLER_6_667
*5442 FILLER_6_683
*5443 FILLER_6_687
*5444 FILLER_6_697
*5445 FILLER_6_729
*5446 FILLER_6_733
*5447 FILLER_6_737
*5448 FILLER_6_769
*5449 FILLER_6_773
*5450 FILLER_6_783
*5451 FILLER_6_795
*5452 FILLER_6_803
*5453 FILLER_6_807
*5454 FILLER_6_815
*5455 FILLER_6_817
*5456 FILLER_6_877
*5457 FILLER_6_926
*5458 FILLER_70_1000
*5459 FILLER_70_1002
*5460 FILLER_70_101
*5461 FILLER_70_107
*5462 FILLER_70_123
*5463 FILLER_70_1815
*5464 FILLER_70_1847
*5465 FILLER_70_1850
*5466 FILLER_70_1914
*5467 FILLER_70_1920
*5468 FILLER_70_1936
*5469 FILLER_70_2
*5470 FILLER_70_34
*5471 FILLER_70_37
*5472 FILLER_70_937
*5473 FILLER_70_969
*5474 FILLER_70_972
*5475 FILLER_70_988
*5476 FILLER_70_996
*5477 FILLER_71_1001
*5478 FILLER_71_104
*5479 FILLER_71_120
*5480 FILLER_71_124
*5481 FILLER_71_1815
*5482 FILLER_71_1879
*5483 FILLER_71_1885
*5484 FILLER_71_1917
*5485 FILLER_71_1933
*5486 FILLER_71_1937
*5487 FILLER_71_2
*5488 FILLER_71_66
*5489 FILLER_71_72
*5490 FILLER_71_937
*5491 FILLER_72_1000
*5492 FILLER_72_1002
*5493 FILLER_72_101
*5494 FILLER_72_107
*5495 FILLER_72_123
*5496 FILLER_72_1815
*5497 FILLER_72_1847
*5498 FILLER_72_1850
*5499 FILLER_72_1914
*5500 FILLER_72_1920
*5501 FILLER_72_1936
*5502 FILLER_72_2
*5503 FILLER_72_34
*5504 FILLER_72_37
*5505 FILLER_72_937
*5506 FILLER_72_969
*5507 FILLER_72_972
*5508 FILLER_72_988
*5509 FILLER_72_996
*5510 FILLER_73_1001
*5511 FILLER_73_104
*5512 FILLER_73_120
*5513 FILLER_73_124
*5514 FILLER_73_1815
*5515 FILLER_73_1879
*5516 FILLER_73_1885
*5517 FILLER_73_1917
*5518 FILLER_73_1933
*5519 FILLER_73_1937
*5520 FILLER_73_2
*5521 FILLER_73_66
*5522 FILLER_73_72
*5523 FILLER_73_937
*5524 FILLER_74_1000
*5525 FILLER_74_1002
*5526 FILLER_74_101
*5527 FILLER_74_107
*5528 FILLER_74_123
*5529 FILLER_74_1815
*5530 FILLER_74_1847
*5531 FILLER_74_1850
*5532 FILLER_74_1914
*5533 FILLER_74_1920
*5534 FILLER_74_1936
*5535 FILLER_74_2
*5536 FILLER_74_34
*5537 FILLER_74_37
*5538 FILLER_74_937
*5539 FILLER_74_969
*5540 FILLER_74_972
*5541 FILLER_74_988
*5542 FILLER_74_996
*5543 FILLER_75_1001
*5544 FILLER_75_104
*5545 FILLER_75_120
*5546 FILLER_75_124
*5547 FILLER_75_1815
*5548 FILLER_75_1879
*5549 FILLER_75_1885
*5550 FILLER_75_1917
*5551 FILLER_75_1933
*5552 FILLER_75_1937
*5553 FILLER_75_2
*5554 FILLER_75_66
*5555 FILLER_75_72
*5556 FILLER_75_937
*5557 FILLER_76_1000
*5558 FILLER_76_1002
*5559 FILLER_76_101
*5560 FILLER_76_107
*5561 FILLER_76_123
*5562 FILLER_76_1815
*5563 FILLER_76_1847
*5564 FILLER_76_1850
*5565 FILLER_76_1914
*5566 FILLER_76_1920
*5567 FILLER_76_1936
*5568 FILLER_76_2
*5569 FILLER_76_34
*5570 FILLER_76_37
*5571 FILLER_76_937
*5572 FILLER_76_969
*5573 FILLER_76_972
*5574 FILLER_76_988
*5575 FILLER_76_996
*5576 FILLER_77_1001
*5577 FILLER_77_104
*5578 FILLER_77_120
*5579 FILLER_77_124
*5580 FILLER_77_1815
*5581 FILLER_77_1879
*5582 FILLER_77_1885
*5583 FILLER_77_1917
*5584 FILLER_77_1933
*5585 FILLER_77_1937
*5586 FILLER_77_2
*5587 FILLER_77_66
*5588 FILLER_77_72
*5589 FILLER_77_937
*5590 FILLER_78_1000
*5591 FILLER_78_1002
*5592 FILLER_78_101
*5593 FILLER_78_107
*5594 FILLER_78_123
*5595 FILLER_78_1815
*5596 FILLER_78_1847
*5597 FILLER_78_1850
*5598 FILLER_78_1914
*5599 FILLER_78_1920
*5600 FILLER_78_1936
*5601 FILLER_78_2
*5602 FILLER_78_34
*5603 FILLER_78_37
*5604 FILLER_78_937
*5605 FILLER_78_969
*5606 FILLER_78_972
*5607 FILLER_78_988
*5608 FILLER_78_996
*5609 FILLER_79_1001
*5610 FILLER_79_104
*5611 FILLER_79_120
*5612 FILLER_79_124
*5613 FILLER_79_1815
*5614 FILLER_79_1879
*5615 FILLER_79_1885
*5616 FILLER_79_1917
*5617 FILLER_79_1933
*5618 FILLER_79_1937
*5619 FILLER_79_2
*5620 FILLER_79_66
*5621 FILLER_79_72
*5622 FILLER_79_937
*5623 FILLER_7_1025
*5624 FILLER_7_1132
*5625 FILLER_7_1177
*5626 FILLER_7_1185
*5627 FILLER_7_1189
*5628 FILLER_7_1192
*5629 FILLER_7_1256
*5630 FILLER_7_1262
*5631 FILLER_7_1326
*5632 FILLER_7_1332
*5633 FILLER_7_136
*5634 FILLER_7_1396
*5635 FILLER_7_1402
*5636 FILLER_7_142
*5637 FILLER_7_1466
*5638 FILLER_7_1472
*5639 FILLER_7_1488
*5640 FILLER_7_1521
*5641 FILLER_7_1537
*5642 FILLER_7_1539
*5643 FILLER_7_1542
*5644 FILLER_7_1606
*5645 FILLER_7_1612
*5646 FILLER_7_1676
*5647 FILLER_7_1682
*5648 FILLER_7_1746
*5649 FILLER_7_1752
*5650 FILLER_7_1816
*5651 FILLER_7_1822
*5652 FILLER_7_1886
*5653 FILLER_7_1892
*5654 FILLER_7_1924
*5655 FILLER_7_1932
*5656 FILLER_7_1936
*5657 FILLER_7_2
*5658 FILLER_7_206
*5659 FILLER_7_212
*5660 FILLER_7_276
*5661 FILLER_7_282
*5662 FILLER_7_346
*5663 FILLER_7_352
*5664 FILLER_7_384
*5665 FILLER_7_415
*5666 FILLER_7_419
*5667 FILLER_7_422
*5668 FILLER_7_486
*5669 FILLER_7_492
*5670 FILLER_7_556
*5671 FILLER_7_562
*5672 FILLER_7_626
*5673 FILLER_7_632
*5674 FILLER_7_66
*5675 FILLER_7_696
*5676 FILLER_7_702
*5677 FILLER_7_72
*5678 FILLER_7_726
*5679 FILLER_7_758
*5680 FILLER_7_766
*5681 FILLER_7_772
*5682 FILLER_7_788
*5683 FILLER_80_1000
*5684 FILLER_80_1002
*5685 FILLER_80_101
*5686 FILLER_80_107
*5687 FILLER_80_123
*5688 FILLER_80_1815
*5689 FILLER_80_1847
*5690 FILLER_80_1850
*5691 FILLER_80_1914
*5692 FILLER_80_1920
*5693 FILLER_80_1936
*5694 FILLER_80_2
*5695 FILLER_80_34
*5696 FILLER_80_37
*5697 FILLER_80_937
*5698 FILLER_80_969
*5699 FILLER_80_972
*5700 FILLER_80_988
*5701 FILLER_80_996
*5702 FILLER_81_1001
*5703 FILLER_81_104
*5704 FILLER_81_120
*5705 FILLER_81_124
*5706 FILLER_81_1815
*5707 FILLER_81_1879
*5708 FILLER_81_1885
*5709 FILLER_81_1917
*5710 FILLER_81_1933
*5711 FILLER_81_1937
*5712 FILLER_81_2
*5713 FILLER_81_66
*5714 FILLER_81_72
*5715 FILLER_81_937
*5716 FILLER_82_1000
*5717 FILLER_82_1002
*5718 FILLER_82_101
*5719 FILLER_82_107
*5720 FILLER_82_123
*5721 FILLER_82_1815
*5722 FILLER_82_1847
*5723 FILLER_82_1850
*5724 FILLER_82_1914
*5725 FILLER_82_1920
*5726 FILLER_82_1936
*5727 FILLER_82_2
*5728 FILLER_82_34
*5729 FILLER_82_37
*5730 FILLER_82_937
*5731 FILLER_82_969
*5732 FILLER_82_972
*5733 FILLER_82_988
*5734 FILLER_82_996
*5735 FILLER_83_104
*5736 FILLER_83_120
*5737 FILLER_83_124
*5738 FILLER_83_1815
*5739 FILLER_83_1879
*5740 FILLER_83_1885
*5741 FILLER_83_1917
*5742 FILLER_83_1933
*5743 FILLER_83_1937
*5744 FILLER_83_2
*5745 FILLER_83_66
*5746 FILLER_83_72
*5747 FILLER_83_937
*5748 FILLER_84_1000
*5749 FILLER_84_1002
*5750 FILLER_84_101
*5751 FILLER_84_107
*5752 FILLER_84_123
*5753 FILLER_84_1815
*5754 FILLER_84_1847
*5755 FILLER_84_1850
*5756 FILLER_84_1914
*5757 FILLER_84_1920
*5758 FILLER_84_1936
*5759 FILLER_84_2
*5760 FILLER_84_34
*5761 FILLER_84_37
*5762 FILLER_84_937
*5763 FILLER_84_969
*5764 FILLER_84_972
*5765 FILLER_84_988
*5766 FILLER_84_996
*5767 FILLER_85_1001
*5768 FILLER_85_104
*5769 FILLER_85_120
*5770 FILLER_85_124
*5771 FILLER_85_1815
*5772 FILLER_85_1879
*5773 FILLER_85_1885
*5774 FILLER_85_1917
*5775 FILLER_85_1933
*5776 FILLER_85_1937
*5777 FILLER_85_2
*5778 FILLER_85_66
*5779 FILLER_85_72
*5780 FILLER_85_937
*5781 FILLER_86_1000
*5782 FILLER_86_1002
*5783 FILLER_86_101
*5784 FILLER_86_107
*5785 FILLER_86_123
*5786 FILLER_86_1815
*5787 FILLER_86_1847
*5788 FILLER_86_1850
*5789 FILLER_86_1914
*5790 FILLER_86_1920
*5791 FILLER_86_1936
*5792 FILLER_86_2
*5793 FILLER_86_34
*5794 FILLER_86_37
*5795 FILLER_86_937
*5796 FILLER_86_969
*5797 FILLER_86_972
*5798 FILLER_86_988
*5799 FILLER_86_996
*5800 FILLER_87_1001
*5801 FILLER_87_104
*5802 FILLER_87_120
*5803 FILLER_87_124
*5804 FILLER_87_1815
*5805 FILLER_87_1879
*5806 FILLER_87_1885
*5807 FILLER_87_1917
*5808 FILLER_87_1933
*5809 FILLER_87_1937
*5810 FILLER_87_2
*5811 FILLER_87_66
*5812 FILLER_87_72
*5813 FILLER_87_937
*5814 FILLER_88_1000
*5815 FILLER_88_1002
*5816 FILLER_88_101
*5817 FILLER_88_107
*5818 FILLER_88_123
*5819 FILLER_88_1815
*5820 FILLER_88_1847
*5821 FILLER_88_1850
*5822 FILLER_88_1914
*5823 FILLER_88_1920
*5824 FILLER_88_1936
*5825 FILLER_88_2
*5826 FILLER_88_34
*5827 FILLER_88_37
*5828 FILLER_88_937
*5829 FILLER_88_969
*5830 FILLER_88_972
*5831 FILLER_88_988
*5832 FILLER_88_996
*5833 FILLER_89_1001
*5834 FILLER_89_104
*5835 FILLER_89_120
*5836 FILLER_89_124
*5837 FILLER_89_1815
*5838 FILLER_89_1879
*5839 FILLER_89_1885
*5840 FILLER_89_1917
*5841 FILLER_89_1933
*5842 FILLER_89_1937
*5843 FILLER_89_2
*5844 FILLER_89_66
*5845 FILLER_89_72
*5846 FILLER_89_937
*5847 FILLER_8_101
*5848 FILLER_8_107
*5849 FILLER_8_1087
*5850 FILLER_8_1089
*5851 FILLER_8_1119
*5852 FILLER_8_1121
*5853 FILLER_8_1151
*5854 FILLER_8_1186
*5855 FILLER_8_1218
*5856 FILLER_8_1222
*5857 FILLER_8_1224
*5858 FILLER_8_1227
*5859 FILLER_8_1291
*5860 FILLER_8_1297
*5861 FILLER_8_1361
*5862 FILLER_8_1367
*5863 FILLER_8_1431
*5864 FILLER_8_1437
*5865 FILLER_8_1453
*5866 FILLER_8_1457
*5867 FILLER_8_1459
*5868 FILLER_8_1489
*5869 FILLER_8_1565
*5870 FILLER_8_1573
*5871 FILLER_8_1577
*5872 FILLER_8_1641
*5873 FILLER_8_1647
*5874 FILLER_8_171
*5875 FILLER_8_1711
*5876 FILLER_8_1717
*5877 FILLER_8_177
*5878 FILLER_8_1781
*5879 FILLER_8_1787
*5880 FILLER_8_1851
*5881 FILLER_8_1857
*5882 FILLER_8_1921
*5883 FILLER_8_1927
*5884 FILLER_8_1935
*5885 FILLER_8_1937
*5886 FILLER_8_2
*5887 FILLER_8_241
*5888 FILLER_8_247
*5889 FILLER_8_311
*5890 FILLER_8_317
*5891 FILLER_8_333
*5892 FILLER_8_337
*5893 FILLER_8_339
*5894 FILLER_8_34
*5895 FILLER_8_369
*5896 FILLER_8_37
*5897 FILLER_8_377
*5898 FILLER_8_379
*5899 FILLER_8_387
*5900 FILLER_8_391
*5901 FILLER_8_398
*5902 FILLER_8_406
*5903 FILLER_8_437
*5904 FILLER_8_453
*5905 FILLER_8_457
*5906 FILLER_8_521
*5907 FILLER_8_527
*5908 FILLER_8_591
*5909 FILLER_8_597
*5910 FILLER_8_661
*5911 FILLER_8_667
*5912 FILLER_8_731
*5913 FILLER_8_737
*5914 FILLER_8_769
*5915 FILLER_90_1000
*5916 FILLER_90_1002
*5917 FILLER_90_101
*5918 FILLER_90_107
*5919 FILLER_90_123
*5920 FILLER_90_1815
*5921 FILLER_90_1847
*5922 FILLER_90_1850
*5923 FILLER_90_1914
*5924 FILLER_90_1920
*5925 FILLER_90_1936
*5926 FILLER_90_2
*5927 FILLER_90_34
*5928 FILLER_90_37
*5929 FILLER_90_937
*5930 FILLER_90_969
*5931 FILLER_90_972
*5932 FILLER_90_988
*5933 FILLER_90_996
*5934 FILLER_91_1001
*5935 FILLER_91_104
*5936 FILLER_91_120
*5937 FILLER_91_124
*5938 FILLER_91_1815
*5939 FILLER_91_1879
*5940 FILLER_91_1885
*5941 FILLER_91_1917
*5942 FILLER_91_1933
*5943 FILLER_91_1937
*5944 FILLER_91_2
*5945 FILLER_91_66
*5946 FILLER_91_72
*5947 FILLER_91_937
*5948 FILLER_92_1000
*5949 FILLER_92_1002
*5950 FILLER_92_101
*5951 FILLER_92_107
*5952 FILLER_92_123
*5953 FILLER_92_1815
*5954 FILLER_92_1847
*5955 FILLER_92_1850
*5956 FILLER_92_1914
*5957 FILLER_92_1920
*5958 FILLER_92_1936
*5959 FILLER_92_2
*5960 FILLER_92_34
*5961 FILLER_92_37
*5962 FILLER_92_937
*5963 FILLER_92_969
*5964 FILLER_92_972
*5965 FILLER_92_988
*5966 FILLER_92_996
*5967 FILLER_93_1001
*5968 FILLER_93_104
*5969 FILLER_93_120
*5970 FILLER_93_124
*5971 FILLER_93_1815
*5972 FILLER_93_1879
*5973 FILLER_93_1885
*5974 FILLER_93_1917
*5975 FILLER_93_1933
*5976 FILLER_93_1937
*5977 FILLER_93_2
*5978 FILLER_93_66
*5979 FILLER_93_72
*5980 FILLER_93_937
*5981 FILLER_94_1000
*5982 FILLER_94_1002
*5983 FILLER_94_101
*5984 FILLER_94_107
*5985 FILLER_94_123
*5986 FILLER_94_1815
*5987 FILLER_94_1847
*5988 FILLER_94_1850
*5989 FILLER_94_1914
*5990 FILLER_94_1920
*5991 FILLER_94_1936
*5992 FILLER_94_2
*5993 FILLER_94_34
*5994 FILLER_94_37
*5995 FILLER_94_937
*5996 FILLER_94_969
*5997 FILLER_94_972
*5998 FILLER_94_988
*5999 FILLER_94_996
*6000 FILLER_95_1001
*6001 FILLER_95_104
*6002 FILLER_95_120
*6003 FILLER_95_124
*6004 FILLER_95_1815
*6005 FILLER_95_1879
*6006 FILLER_95_1885
*6007 FILLER_95_1917
*6008 FILLER_95_1933
*6009 FILLER_95_1937
*6010 FILLER_95_2
*6011 FILLER_95_66
*6012 FILLER_95_72
*6013 FILLER_95_937
*6014 FILLER_96_1000
*6015 FILLER_96_1002
*6016 FILLER_96_101
*6017 FILLER_96_107
*6018 FILLER_96_123
*6019 FILLER_96_1815
*6020 FILLER_96_1847
*6021 FILLER_96_1850
*6022 FILLER_96_1914
*6023 FILLER_96_1920
*6024 FILLER_96_1936
*6025 FILLER_96_2
*6026 FILLER_96_34
*6027 FILLER_96_37
*6028 FILLER_96_937
*6029 FILLER_96_969
*6030 FILLER_96_972
*6031 FILLER_96_988
*6032 FILLER_96_996
*6033 FILLER_97_104
*6034 FILLER_97_120
*6035 FILLER_97_124
*6036 FILLER_97_1815
*6037 FILLER_97_1879
*6038 FILLER_97_1885
*6039 FILLER_97_1917
*6040 FILLER_97_1933
*6041 FILLER_97_1937
*6042 FILLER_97_2
*6043 FILLER_97_66
*6044 FILLER_97_72
*6045 FILLER_97_987
*6046 FILLER_97_995
*6047 FILLER_98_1000
*6048 FILLER_98_1002
*6049 FILLER_98_101
*6050 FILLER_98_107
*6051 FILLER_98_123
*6052 FILLER_98_1815
*6053 FILLER_98_1847
*6054 FILLER_98_1850
*6055 FILLER_98_1914
*6056 FILLER_98_1920
*6057 FILLER_98_1936
*6058 FILLER_98_2
*6059 FILLER_98_34
*6060 FILLER_98_37
*6061 FILLER_98_937
*6062 FILLER_98_969
*6063 FILLER_98_972
*6064 FILLER_98_988
*6065 FILLER_98_996
*6066 FILLER_99_1001
*6067 FILLER_99_104
*6068 FILLER_99_120
*6069 FILLER_99_124
*6070 FILLER_99_1815
*6071 FILLER_99_1879
*6072 FILLER_99_1885
*6073 FILLER_99_1917
*6074 FILLER_99_1933
*6075 FILLER_99_1937
*6076 FILLER_99_2
*6077 FILLER_99_66
*6078 FILLER_99_72
*6079 FILLER_99_937
*6080 FILLER_9_1115
*6081 FILLER_9_1119
*6082 FILLER_9_1166
*6083 FILLER_9_1168
*6084 FILLER_9_1188
*6085 FILLER_9_1197
*6086 FILLER_9_1229
*6087 FILLER_9_1245
*6088 FILLER_9_1253
*6089 FILLER_9_1257
*6090 FILLER_9_1259
*6091 FILLER_9_1262
*6092 FILLER_9_1326
*6093 FILLER_9_1332
*6094 FILLER_9_1348
*6095 FILLER_9_136
*6096 FILLER_9_1363
*6097 FILLER_9_1395
*6098 FILLER_9_1399
*6099 FILLER_9_1402
*6100 FILLER_9_142
*6101 FILLER_9_1466
*6102 FILLER_9_1472
*6103 FILLER_9_1498
*6104 FILLER_9_1514
*6105 FILLER_9_1518
*6106 FILLER_9_1520
*6107 FILLER_9_1526
*6108 FILLER_9_1528
*6109 FILLER_9_1539
*6110 FILLER_9_1542
*6111 FILLER_9_1550
*6112 FILLER_9_1564
*6113 FILLER_9_1596
*6114 FILLER_9_1604
*6115 FILLER_9_1608
*6116 FILLER_9_1612
*6117 FILLER_9_1676
*6118 FILLER_9_1682
*6119 FILLER_9_1746
*6120 FILLER_9_1752
*6121 FILLER_9_1816
*6122 FILLER_9_1822
*6123 FILLER_9_1886
*6124 FILLER_9_1892
*6125 FILLER_9_1924
*6126 FILLER_9_1932
*6127 FILLER_9_1936
*6128 FILLER_9_2
*6129 FILLER_9_206
*6130 FILLER_9_212
*6131 FILLER_9_276
*6132 FILLER_9_282
*6133 FILLER_9_314
*6134 FILLER_9_330
*6135 FILLER_9_343
*6136 FILLER_9_347
*6137 FILLER_9_349
*6138 FILLER_9_357
*6139 FILLER_9_365
*6140 FILLER_9_400
*6141 FILLER_9_404
*6142 FILLER_9_411
*6143 FILLER_9_422
*6144 FILLER_9_486
*6145 FILLER_9_492
*6146 FILLER_9_556
*6147 FILLER_9_562
*6148 FILLER_9_626
*6149 FILLER_9_632
*6150 FILLER_9_66
*6151 FILLER_9_696
*6152 FILLER_9_702
*6153 FILLER_9_72
*6154 FILLER_9_766
*6155 FILLER_9_772
*6156 FILLER_9_779
*6157 FILLER_9_781
*6158 FILLER_9_787
*6159 FILLER_9_829
*6160 FILLER_9_982
*6161 PHY_EDGE_ROW_0_Left_221
*6162 PHY_EDGE_ROW_0_Right_0
*6163 PHY_EDGE_ROW_100_1_Left_320
*6164 PHY_EDGE_ROW_100_1_Right_621
*6165 PHY_EDGE_ROW_100_2_Left_529
*6166 PHY_EDGE_ROW_100_2_Right_808
*6167 PHY_EDGE_ROW_100_3_Left_715
*6168 PHY_EDGE_ROW_100_3_Right_122
*6169 PHY_EDGE_ROW_101_1_Left_321
*6170 PHY_EDGE_ROW_101_1_Right_622
*6171 PHY_EDGE_ROW_101_2_Left_530
*6172 PHY_EDGE_ROW_101_2_Right_809
*6173 PHY_EDGE_ROW_101_3_Left_716
*6174 PHY_EDGE_ROW_101_3_Right_123
*6175 PHY_EDGE_ROW_102_1_Left_322
*6176 PHY_EDGE_ROW_102_1_Right_623
*6177 PHY_EDGE_ROW_102_2_Left_531
*6178 PHY_EDGE_ROW_102_2_Right_810
*6179 PHY_EDGE_ROW_102_3_Left_717
*6180 PHY_EDGE_ROW_102_3_Right_124
*6181 PHY_EDGE_ROW_103_1_Left_323
*6182 PHY_EDGE_ROW_103_1_Right_624
*6183 PHY_EDGE_ROW_103_2_Left_532
*6184 PHY_EDGE_ROW_103_2_Right_811
*6185 PHY_EDGE_ROW_103_3_Left_718
*6186 PHY_EDGE_ROW_103_3_Right_125
*6187 PHY_EDGE_ROW_104_1_Left_324
*6188 PHY_EDGE_ROW_104_1_Right_625
*6189 PHY_EDGE_ROW_104_2_Left_533
*6190 PHY_EDGE_ROW_104_2_Right_812
*6191 PHY_EDGE_ROW_104_3_Left_719
*6192 PHY_EDGE_ROW_104_3_Right_126
*6193 PHY_EDGE_ROW_105_1_Left_325
*6194 PHY_EDGE_ROW_105_1_Right_626
*6195 PHY_EDGE_ROW_105_2_Left_534
*6196 PHY_EDGE_ROW_105_2_Right_813
*6197 PHY_EDGE_ROW_105_3_Left_720
*6198 PHY_EDGE_ROW_105_3_Right_127
*6199 PHY_EDGE_ROW_106_Left_327
*6200 PHY_EDGE_ROW_106_Right_13
*6201 PHY_EDGE_ROW_107_Left_328
*6202 PHY_EDGE_ROW_107_Right_14
*6203 PHY_EDGE_ROW_108_Left_329
*6204 PHY_EDGE_ROW_108_Right_15
*6205 PHY_EDGE_ROW_109_Left_330
*6206 PHY_EDGE_ROW_109_Right_16
*6207 PHY_EDGE_ROW_10_Left_231
*6208 PHY_EDGE_ROW_10_Right_10
*6209 PHY_EDGE_ROW_110_Left_331
*6210 PHY_EDGE_ROW_110_Right_17
*6211 PHY_EDGE_ROW_111_Left_332
*6212 PHY_EDGE_ROW_111_Right_18
*6213 PHY_EDGE_ROW_112_Left_333
*6214 PHY_EDGE_ROW_112_Right_19
*6215 PHY_EDGE_ROW_113_Left_334
*6216 PHY_EDGE_ROW_113_Right_20
*6217 PHY_EDGE_ROW_114_Left_335
*6218 PHY_EDGE_ROW_114_Right_21
*6219 PHY_EDGE_ROW_115_1_Left_326
*6220 PHY_EDGE_ROW_115_1_Right_907
*6221 PHY_EDGE_ROW_115_2_Left_814
*6222 PHY_EDGE_ROW_115_2_Right_1093
*6223 PHY_EDGE_ROW_115_3_Left_1000
*6224 PHY_EDGE_ROW_115_3_Right_128
*6225 PHY_EDGE_ROW_116_1_Left_336
*6226 PHY_EDGE_ROW_116_1_Right_908
*6227 PHY_EDGE_ROW_116_2_Left_815
*6228 PHY_EDGE_ROW_116_2_Right_1094
*6229 PHY_EDGE_ROW_116_3_Left_1001
*6230 PHY_EDGE_ROW_116_3_Right_129
*6231 PHY_EDGE_ROW_117_1_Left_337
*6232 PHY_EDGE_ROW_117_1_Right_909
*6233 PHY_EDGE_ROW_117_2_Left_816
*6234 PHY_EDGE_ROW_117_2_Right_1095
*6235 PHY_EDGE_ROW_117_3_Left_1002
*6236 PHY_EDGE_ROW_117_3_Right_130
*6237 PHY_EDGE_ROW_118_1_Left_338
*6238 PHY_EDGE_ROW_118_1_Right_910
*6239 PHY_EDGE_ROW_118_2_Left_817
*6240 PHY_EDGE_ROW_118_2_Right_1096
*6241 PHY_EDGE_ROW_118_3_Left_1003
*6242 PHY_EDGE_ROW_118_3_Right_131
*6243 PHY_EDGE_ROW_119_1_Left_339
*6244 PHY_EDGE_ROW_119_1_Right_911
*6245 PHY_EDGE_ROW_119_2_Left_818
*6246 PHY_EDGE_ROW_119_2_Right_1097
*6247 PHY_EDGE_ROW_119_3_Left_1004
*6248 PHY_EDGE_ROW_119_3_Right_132
*6249 PHY_EDGE_ROW_11_Left_232
*6250 PHY_EDGE_ROW_11_Right_11
*6251 PHY_EDGE_ROW_120_1_Left_340
*6252 PHY_EDGE_ROW_120_1_Right_912
*6253 PHY_EDGE_ROW_120_2_Left_819
*6254 PHY_EDGE_ROW_120_2_Right_1098
*6255 PHY_EDGE_ROW_120_3_Left_1005
*6256 PHY_EDGE_ROW_120_3_Right_133
*6257 PHY_EDGE_ROW_121_1_Left_341
*6258 PHY_EDGE_ROW_121_1_Right_913
*6259 PHY_EDGE_ROW_121_2_Left_820
*6260 PHY_EDGE_ROW_121_2_Right_1099
*6261 PHY_EDGE_ROW_121_3_Left_1006
*6262 PHY_EDGE_ROW_121_3_Right_134
*6263 PHY_EDGE_ROW_122_1_Left_342
*6264 PHY_EDGE_ROW_122_1_Right_914
*6265 PHY_EDGE_ROW_122_2_Left_821
*6266 PHY_EDGE_ROW_122_2_Right_1100
*6267 PHY_EDGE_ROW_122_3_Left_1007
*6268 PHY_EDGE_ROW_122_3_Right_135
*6269 PHY_EDGE_ROW_123_1_Left_343
*6270 PHY_EDGE_ROW_123_1_Right_915
*6271 PHY_EDGE_ROW_123_2_Left_822
*6272 PHY_EDGE_ROW_123_2_Right_1101
*6273 PHY_EDGE_ROW_123_3_Left_1008
*6274 PHY_EDGE_ROW_123_3_Right_136
*6275 PHY_EDGE_ROW_124_1_Left_344
*6276 PHY_EDGE_ROW_124_1_Right_916
*6277 PHY_EDGE_ROW_124_2_Left_823
*6278 PHY_EDGE_ROW_124_2_Right_1102
*6279 PHY_EDGE_ROW_124_3_Left_1009
*6280 PHY_EDGE_ROW_124_3_Right_137
*6281 PHY_EDGE_ROW_125_1_Left_345
*6282 PHY_EDGE_ROW_125_1_Right_917
*6283 PHY_EDGE_ROW_125_2_Left_824
*6284 PHY_EDGE_ROW_125_2_Right_1103
*6285 PHY_EDGE_ROW_125_3_Left_1010
*6286 PHY_EDGE_ROW_125_3_Right_138
*6287 PHY_EDGE_ROW_126_1_Left_346
*6288 PHY_EDGE_ROW_126_1_Right_918
*6289 PHY_EDGE_ROW_126_2_Left_825
*6290 PHY_EDGE_ROW_126_2_Right_1104
*6291 PHY_EDGE_ROW_126_3_Left_1011
*6292 PHY_EDGE_ROW_126_3_Right_139
*6293 PHY_EDGE_ROW_127_1_Left_347
*6294 PHY_EDGE_ROW_127_1_Right_919
*6295 PHY_EDGE_ROW_127_2_Left_826
*6296 PHY_EDGE_ROW_127_2_Right_1105
*6297 PHY_EDGE_ROW_127_3_Left_1012
*6298 PHY_EDGE_ROW_127_3_Right_140
*6299 PHY_EDGE_ROW_128_1_Left_348
*6300 PHY_EDGE_ROW_128_1_Right_920
*6301 PHY_EDGE_ROW_128_2_Left_827
*6302 PHY_EDGE_ROW_128_2_Right_1106
*6303 PHY_EDGE_ROW_128_3_Left_1013
*6304 PHY_EDGE_ROW_128_3_Right_141
*6305 PHY_EDGE_ROW_129_1_Left_349
*6306 PHY_EDGE_ROW_129_1_Right_921
*6307 PHY_EDGE_ROW_129_2_Left_828
*6308 PHY_EDGE_ROW_129_2_Right_1107
*6309 PHY_EDGE_ROW_129_3_Left_1014
*6310 PHY_EDGE_ROW_129_3_Right_142
*6311 PHY_EDGE_ROW_12_Left_233
*6312 PHY_EDGE_ROW_12_Right_12
*6313 PHY_EDGE_ROW_130_1_Left_350
*6314 PHY_EDGE_ROW_130_1_Right_922
*6315 PHY_EDGE_ROW_130_2_Left_829
*6316 PHY_EDGE_ROW_130_2_Right_1108
*6317 PHY_EDGE_ROW_130_3_Left_1015
*6318 PHY_EDGE_ROW_130_3_Right_143
*6319 PHY_EDGE_ROW_131_1_Left_351
*6320 PHY_EDGE_ROW_131_1_Right_923
*6321 PHY_EDGE_ROW_131_2_Left_830
*6322 PHY_EDGE_ROW_131_2_Right_1109
*6323 PHY_EDGE_ROW_131_3_Left_1016
*6324 PHY_EDGE_ROW_131_3_Right_144
*6325 PHY_EDGE_ROW_132_1_Left_352
*6326 PHY_EDGE_ROW_132_1_Right_924
*6327 PHY_EDGE_ROW_132_2_Left_831
*6328 PHY_EDGE_ROW_132_2_Right_1110
*6329 PHY_EDGE_ROW_132_3_Left_1017
*6330 PHY_EDGE_ROW_132_3_Right_145
*6331 PHY_EDGE_ROW_133_1_Left_353
*6332 PHY_EDGE_ROW_133_1_Right_925
*6333 PHY_EDGE_ROW_133_2_Left_832
*6334 PHY_EDGE_ROW_133_2_Right_1111
*6335 PHY_EDGE_ROW_133_3_Left_1018
*6336 PHY_EDGE_ROW_133_3_Right_146
*6337 PHY_EDGE_ROW_134_1_Left_354
*6338 PHY_EDGE_ROW_134_1_Right_926
*6339 PHY_EDGE_ROW_134_2_Left_833
*6340 PHY_EDGE_ROW_134_2_Right_1112
*6341 PHY_EDGE_ROW_134_3_Left_1019
*6342 PHY_EDGE_ROW_134_3_Right_147
*6343 PHY_EDGE_ROW_135_1_Left_355
*6344 PHY_EDGE_ROW_135_1_Right_927
*6345 PHY_EDGE_ROW_135_2_Left_834
*6346 PHY_EDGE_ROW_135_2_Right_1113
*6347 PHY_EDGE_ROW_135_3_Left_1020
*6348 PHY_EDGE_ROW_135_3_Right_148
*6349 PHY_EDGE_ROW_136_1_Left_356
*6350 PHY_EDGE_ROW_136_1_Right_928
*6351 PHY_EDGE_ROW_136_2_Left_835
*6352 PHY_EDGE_ROW_136_2_Right_1114
*6353 PHY_EDGE_ROW_136_3_Left_1021
*6354 PHY_EDGE_ROW_136_3_Right_149
*6355 PHY_EDGE_ROW_137_1_Left_357
*6356 PHY_EDGE_ROW_137_1_Right_929
*6357 PHY_EDGE_ROW_137_2_Left_836
*6358 PHY_EDGE_ROW_137_2_Right_1115
*6359 PHY_EDGE_ROW_137_3_Left_1022
*6360 PHY_EDGE_ROW_137_3_Right_150
*6361 PHY_EDGE_ROW_138_1_Left_358
*6362 PHY_EDGE_ROW_138_1_Right_930
*6363 PHY_EDGE_ROW_138_2_Left_837
*6364 PHY_EDGE_ROW_138_2_Right_1116
*6365 PHY_EDGE_ROW_138_3_Left_1023
*6366 PHY_EDGE_ROW_138_3_Right_151
*6367 PHY_EDGE_ROW_139_1_Left_359
*6368 PHY_EDGE_ROW_139_1_Right_931
*6369 PHY_EDGE_ROW_139_2_Left_838
*6370 PHY_EDGE_ROW_139_2_Right_1117
*6371 PHY_EDGE_ROW_139_3_Left_1024
*6372 PHY_EDGE_ROW_139_3_Right_152
*6373 PHY_EDGE_ROW_13_1_Left_441
*6374 PHY_EDGE_ROW_13_1_Right_627
*6375 PHY_EDGE_ROW_13_2_Left_442
*6376 PHY_EDGE_ROW_13_2_Right_721
*6377 PHY_EDGE_ROW_13_3_Left_628
*6378 PHY_EDGE_ROW_13_3_Right_35
*6379 PHY_EDGE_ROW_140_1_Left_360
*6380 PHY_EDGE_ROW_140_1_Right_932
*6381 PHY_EDGE_ROW_140_2_Left_839
*6382 PHY_EDGE_ROW_140_2_Right_1118
*6383 PHY_EDGE_ROW_140_3_Left_1025
*6384 PHY_EDGE_ROW_140_3_Right_153
*6385 PHY_EDGE_ROW_141_1_Left_361
*6386 PHY_EDGE_ROW_141_1_Right_933
*6387 PHY_EDGE_ROW_141_2_Left_840
*6388 PHY_EDGE_ROW_141_2_Right_1119
*6389 PHY_EDGE_ROW_141_3_Left_1026
*6390 PHY_EDGE_ROW_141_3_Right_154
*6391 PHY_EDGE_ROW_142_1_Left_362
*6392 PHY_EDGE_ROW_142_1_Right_934
*6393 PHY_EDGE_ROW_142_2_Left_841
*6394 PHY_EDGE_ROW_142_2_Right_1120
*6395 PHY_EDGE_ROW_142_3_Left_1027
*6396 PHY_EDGE_ROW_142_3_Right_155
*6397 PHY_EDGE_ROW_143_1_Left_363
*6398 PHY_EDGE_ROW_143_1_Right_935
*6399 PHY_EDGE_ROW_143_2_Left_842
*6400 PHY_EDGE_ROW_143_2_Right_1121
*6401 PHY_EDGE_ROW_143_3_Left_1028
*6402 PHY_EDGE_ROW_143_3_Right_156
*6403 PHY_EDGE_ROW_144_1_Left_364
*6404 PHY_EDGE_ROW_144_1_Right_936
*6405 PHY_EDGE_ROW_144_2_Left_843
*6406 PHY_EDGE_ROW_144_2_Right_1122
*6407 PHY_EDGE_ROW_144_3_Left_1029
*6408 PHY_EDGE_ROW_144_3_Right_157
*6409 PHY_EDGE_ROW_145_1_Left_365
*6410 PHY_EDGE_ROW_145_1_Right_937
*6411 PHY_EDGE_ROW_145_2_Left_844
*6412 PHY_EDGE_ROW_145_2_Right_1123
*6413 PHY_EDGE_ROW_145_3_Left_1030
*6414 PHY_EDGE_ROW_145_3_Right_158
*6415 PHY_EDGE_ROW_146_1_Left_366
*6416 PHY_EDGE_ROW_146_1_Right_938
*6417 PHY_EDGE_ROW_146_2_Left_845
*6418 PHY_EDGE_ROW_146_2_Right_1124
*6419 PHY_EDGE_ROW_146_3_Left_1031
*6420 PHY_EDGE_ROW_146_3_Right_159
*6421 PHY_EDGE_ROW_147_1_Left_367
*6422 PHY_EDGE_ROW_147_1_Right_939
*6423 PHY_EDGE_ROW_147_2_Left_846
*6424 PHY_EDGE_ROW_147_2_Right_1125
*6425 PHY_EDGE_ROW_147_3_Left_1032
*6426 PHY_EDGE_ROW_147_3_Right_160
*6427 PHY_EDGE_ROW_148_1_Left_368
*6428 PHY_EDGE_ROW_148_1_Right_940
*6429 PHY_EDGE_ROW_148_2_Left_847
*6430 PHY_EDGE_ROW_148_2_Right_1126
*6431 PHY_EDGE_ROW_148_3_Left_1033
*6432 PHY_EDGE_ROW_148_3_Right_161
*6433 PHY_EDGE_ROW_149_1_Left_369
*6434 PHY_EDGE_ROW_149_1_Right_941
*6435 PHY_EDGE_ROW_149_2_Left_848
*6436 PHY_EDGE_ROW_149_2_Right_1127
*6437 PHY_EDGE_ROW_149_3_Left_1034
*6438 PHY_EDGE_ROW_149_3_Right_162
*6439 PHY_EDGE_ROW_14_1_Left_234
*6440 PHY_EDGE_ROW_14_1_Right_535
*6441 PHY_EDGE_ROW_14_2_Left_443
*6442 PHY_EDGE_ROW_14_2_Right_722
*6443 PHY_EDGE_ROW_14_3_Left_629
*6444 PHY_EDGE_ROW_14_3_Right_36
*6445 PHY_EDGE_ROW_150_1_Left_370
*6446 PHY_EDGE_ROW_150_1_Right_942
*6447 PHY_EDGE_ROW_150_2_Left_849
*6448 PHY_EDGE_ROW_150_2_Right_1128
*6449 PHY_EDGE_ROW_150_3_Left_1035
*6450 PHY_EDGE_ROW_150_3_Right_163
*6451 PHY_EDGE_ROW_151_1_Left_371
*6452 PHY_EDGE_ROW_151_1_Right_943
*6453 PHY_EDGE_ROW_151_2_Left_850
*6454 PHY_EDGE_ROW_151_2_Right_1129
*6455 PHY_EDGE_ROW_151_3_Left_1036
*6456 PHY_EDGE_ROW_151_3_Right_164
*6457 PHY_EDGE_ROW_152_1_Left_372
*6458 PHY_EDGE_ROW_152_1_Right_944
*6459 PHY_EDGE_ROW_152_2_Left_851
*6460 PHY_EDGE_ROW_152_2_Right_1130
*6461 PHY_EDGE_ROW_152_3_Left_1037
*6462 PHY_EDGE_ROW_152_3_Right_165
*6463 PHY_EDGE_ROW_153_1_Left_373
*6464 PHY_EDGE_ROW_153_1_Right_945
*6465 PHY_EDGE_ROW_153_2_Left_852
*6466 PHY_EDGE_ROW_153_2_Right_1131
*6467 PHY_EDGE_ROW_153_3_Left_1038
*6468 PHY_EDGE_ROW_153_3_Right_166
*6469 PHY_EDGE_ROW_154_1_Left_374
*6470 PHY_EDGE_ROW_154_1_Right_946
*6471 PHY_EDGE_ROW_154_2_Left_853
*6472 PHY_EDGE_ROW_154_2_Right_1132
*6473 PHY_EDGE_ROW_154_3_Left_1039
*6474 PHY_EDGE_ROW_154_3_Right_167
*6475 PHY_EDGE_ROW_155_1_Left_375
*6476 PHY_EDGE_ROW_155_1_Right_947
*6477 PHY_EDGE_ROW_155_2_Left_854
*6478 PHY_EDGE_ROW_155_2_Right_1133
*6479 PHY_EDGE_ROW_155_3_Left_1040
*6480 PHY_EDGE_ROW_155_3_Right_168
*6481 PHY_EDGE_ROW_156_1_Left_376
*6482 PHY_EDGE_ROW_156_1_Right_948
*6483 PHY_EDGE_ROW_156_2_Left_855
*6484 PHY_EDGE_ROW_156_2_Right_1134
*6485 PHY_EDGE_ROW_156_3_Left_1041
*6486 PHY_EDGE_ROW_156_3_Right_169
*6487 PHY_EDGE_ROW_157_1_Left_377
*6488 PHY_EDGE_ROW_157_1_Right_949
*6489 PHY_EDGE_ROW_157_2_Left_856
*6490 PHY_EDGE_ROW_157_2_Right_1135
*6491 PHY_EDGE_ROW_157_3_Left_1042
*6492 PHY_EDGE_ROW_157_3_Right_170
*6493 PHY_EDGE_ROW_158_1_Left_378
*6494 PHY_EDGE_ROW_158_1_Right_950
*6495 PHY_EDGE_ROW_158_2_Left_857
*6496 PHY_EDGE_ROW_158_2_Right_1136
*6497 PHY_EDGE_ROW_158_3_Left_1043
*6498 PHY_EDGE_ROW_158_3_Right_171
*6499 PHY_EDGE_ROW_159_1_Left_379
*6500 PHY_EDGE_ROW_159_1_Right_951
*6501 PHY_EDGE_ROW_159_2_Left_858
*6502 PHY_EDGE_ROW_159_2_Right_1137
*6503 PHY_EDGE_ROW_159_3_Left_1044
*6504 PHY_EDGE_ROW_159_3_Right_172
*6505 PHY_EDGE_ROW_15_1_Left_235
*6506 PHY_EDGE_ROW_15_1_Right_536
*6507 PHY_EDGE_ROW_15_2_Left_444
*6508 PHY_EDGE_ROW_15_2_Right_723
*6509 PHY_EDGE_ROW_15_3_Left_630
*6510 PHY_EDGE_ROW_15_3_Right_37
*6511 PHY_EDGE_ROW_160_1_Left_380
*6512 PHY_EDGE_ROW_160_1_Right_952
*6513 PHY_EDGE_ROW_160_2_Left_859
*6514 PHY_EDGE_ROW_160_2_Right_1138
*6515 PHY_EDGE_ROW_160_3_Left_1045
*6516 PHY_EDGE_ROW_160_3_Right_173
*6517 PHY_EDGE_ROW_161_1_Left_381
*6518 PHY_EDGE_ROW_161_1_Right_953
*6519 PHY_EDGE_ROW_161_2_Left_860
*6520 PHY_EDGE_ROW_161_2_Right_1139
*6521 PHY_EDGE_ROW_161_3_Left_1046
*6522 PHY_EDGE_ROW_161_3_Right_174
*6523 PHY_EDGE_ROW_162_1_Left_382
*6524 PHY_EDGE_ROW_162_1_Right_954
*6525 PHY_EDGE_ROW_162_2_Left_861
*6526 PHY_EDGE_ROW_162_2_Right_1140
*6527 PHY_EDGE_ROW_162_3_Left_1047
*6528 PHY_EDGE_ROW_162_3_Right_175
*6529 PHY_EDGE_ROW_163_1_Left_383
*6530 PHY_EDGE_ROW_163_1_Right_955
*6531 PHY_EDGE_ROW_163_2_Left_862
*6532 PHY_EDGE_ROW_163_2_Right_1141
*6533 PHY_EDGE_ROW_163_3_Left_1048
*6534 PHY_EDGE_ROW_163_3_Right_176
*6535 PHY_EDGE_ROW_164_1_Left_384
*6536 PHY_EDGE_ROW_164_1_Right_956
*6537 PHY_EDGE_ROW_164_2_Left_863
*6538 PHY_EDGE_ROW_164_2_Right_1142
*6539 PHY_EDGE_ROW_164_3_Left_1049
*6540 PHY_EDGE_ROW_164_3_Right_177
*6541 PHY_EDGE_ROW_165_1_Left_385
*6542 PHY_EDGE_ROW_165_1_Right_957
*6543 PHY_EDGE_ROW_165_2_Left_864
*6544 PHY_EDGE_ROW_165_2_Right_1143
*6545 PHY_EDGE_ROW_165_3_Left_1050
*6546 PHY_EDGE_ROW_165_3_Right_178
*6547 PHY_EDGE_ROW_166_1_Left_386
*6548 PHY_EDGE_ROW_166_1_Right_958
*6549 PHY_EDGE_ROW_166_2_Left_865
*6550 PHY_EDGE_ROW_166_2_Right_1144
*6551 PHY_EDGE_ROW_166_3_Left_1051
*6552 PHY_EDGE_ROW_166_3_Right_179
*6553 PHY_EDGE_ROW_167_1_Left_387
*6554 PHY_EDGE_ROW_167_1_Right_959
*6555 PHY_EDGE_ROW_167_2_Left_866
*6556 PHY_EDGE_ROW_167_2_Right_1145
*6557 PHY_EDGE_ROW_167_3_Left_1052
*6558 PHY_EDGE_ROW_167_3_Right_180
*6559 PHY_EDGE_ROW_168_1_Left_388
*6560 PHY_EDGE_ROW_168_1_Right_960
*6561 PHY_EDGE_ROW_168_2_Left_867
*6562 PHY_EDGE_ROW_168_2_Right_1146
*6563 PHY_EDGE_ROW_168_3_Left_1053
*6564 PHY_EDGE_ROW_168_3_Right_181
*6565 PHY_EDGE_ROW_169_1_Left_389
*6566 PHY_EDGE_ROW_169_1_Right_961
*6567 PHY_EDGE_ROW_169_2_Left_868
*6568 PHY_EDGE_ROW_169_2_Right_1147
*6569 PHY_EDGE_ROW_169_3_Left_1054
*6570 PHY_EDGE_ROW_169_3_Right_182
*6571 PHY_EDGE_ROW_16_1_Left_236
*6572 PHY_EDGE_ROW_16_1_Right_537
*6573 PHY_EDGE_ROW_16_2_Left_445
*6574 PHY_EDGE_ROW_16_2_Right_724
*6575 PHY_EDGE_ROW_16_3_Left_631
*6576 PHY_EDGE_ROW_16_3_Right_38
*6577 PHY_EDGE_ROW_170_1_Left_390
*6578 PHY_EDGE_ROW_170_1_Right_962
*6579 PHY_EDGE_ROW_170_2_Left_869
*6580 PHY_EDGE_ROW_170_2_Right_1148
*6581 PHY_EDGE_ROW_170_3_Left_1055
*6582 PHY_EDGE_ROW_170_3_Right_183
*6583 PHY_EDGE_ROW_171_1_Left_391
*6584 PHY_EDGE_ROW_171_1_Right_963
*6585 PHY_EDGE_ROW_171_2_Left_870
*6586 PHY_EDGE_ROW_171_2_Right_1149
*6587 PHY_EDGE_ROW_171_3_Left_1056
*6588 PHY_EDGE_ROW_171_3_Right_184
*6589 PHY_EDGE_ROW_172_1_Left_392
*6590 PHY_EDGE_ROW_172_1_Right_964
*6591 PHY_EDGE_ROW_172_2_Left_871
*6592 PHY_EDGE_ROW_172_2_Right_1150
*6593 PHY_EDGE_ROW_172_3_Left_1057
*6594 PHY_EDGE_ROW_172_3_Right_185
*6595 PHY_EDGE_ROW_173_1_Left_393
*6596 PHY_EDGE_ROW_173_1_Right_965
*6597 PHY_EDGE_ROW_173_2_Left_872
*6598 PHY_EDGE_ROW_173_2_Right_1151
*6599 PHY_EDGE_ROW_173_3_Left_1058
*6600 PHY_EDGE_ROW_173_3_Right_186
*6601 PHY_EDGE_ROW_174_1_Left_394
*6602 PHY_EDGE_ROW_174_1_Right_966
*6603 PHY_EDGE_ROW_174_2_Left_873
*6604 PHY_EDGE_ROW_174_2_Right_1152
*6605 PHY_EDGE_ROW_174_3_Left_1059
*6606 PHY_EDGE_ROW_174_3_Right_187
*6607 PHY_EDGE_ROW_175_1_Left_395
*6608 PHY_EDGE_ROW_175_1_Right_967
*6609 PHY_EDGE_ROW_175_2_Left_874
*6610 PHY_EDGE_ROW_175_2_Right_1153
*6611 PHY_EDGE_ROW_175_3_Left_1060
*6612 PHY_EDGE_ROW_175_3_Right_188
*6613 PHY_EDGE_ROW_176_1_Left_396
*6614 PHY_EDGE_ROW_176_1_Right_968
*6615 PHY_EDGE_ROW_176_2_Left_875
*6616 PHY_EDGE_ROW_176_2_Right_1154
*6617 PHY_EDGE_ROW_176_3_Left_1061
*6618 PHY_EDGE_ROW_176_3_Right_189
*6619 PHY_EDGE_ROW_177_1_Left_397
*6620 PHY_EDGE_ROW_177_1_Right_969
*6621 PHY_EDGE_ROW_177_2_Left_876
*6622 PHY_EDGE_ROW_177_2_Right_1155
*6623 PHY_EDGE_ROW_177_3_Left_1062
*6624 PHY_EDGE_ROW_177_3_Right_190
*6625 PHY_EDGE_ROW_178_1_Left_398
*6626 PHY_EDGE_ROW_178_1_Right_970
*6627 PHY_EDGE_ROW_178_2_Left_877
*6628 PHY_EDGE_ROW_178_2_Right_1156
*6629 PHY_EDGE_ROW_178_3_Left_1063
*6630 PHY_EDGE_ROW_178_3_Right_191
*6631 PHY_EDGE_ROW_179_1_Left_399
*6632 PHY_EDGE_ROW_179_1_Right_971
*6633 PHY_EDGE_ROW_179_2_Left_878
*6634 PHY_EDGE_ROW_179_2_Right_1157
*6635 PHY_EDGE_ROW_179_3_Left_1064
*6636 PHY_EDGE_ROW_179_3_Right_192
*6637 PHY_EDGE_ROW_17_1_Left_237
*6638 PHY_EDGE_ROW_17_1_Right_538
*6639 PHY_EDGE_ROW_17_2_Left_446
*6640 PHY_EDGE_ROW_17_2_Right_725
*6641 PHY_EDGE_ROW_17_3_Left_632
*6642 PHY_EDGE_ROW_17_3_Right_39
*6643 PHY_EDGE_ROW_180_1_Left_400
*6644 PHY_EDGE_ROW_180_1_Right_972
*6645 PHY_EDGE_ROW_180_2_Left_879
*6646 PHY_EDGE_ROW_180_2_Right_1158
*6647 PHY_EDGE_ROW_180_3_Left_1065
*6648 PHY_EDGE_ROW_180_3_Right_193
*6649 PHY_EDGE_ROW_181_1_Left_401
*6650 PHY_EDGE_ROW_181_1_Right_973
*6651 PHY_EDGE_ROW_181_2_Left_880
*6652 PHY_EDGE_ROW_181_2_Right_1159
*6653 PHY_EDGE_ROW_181_3_Left_1066
*6654 PHY_EDGE_ROW_181_3_Right_194
*6655 PHY_EDGE_ROW_182_1_Left_402
*6656 PHY_EDGE_ROW_182_1_Right_974
*6657 PHY_EDGE_ROW_182_2_Left_881
*6658 PHY_EDGE_ROW_182_2_Right_1160
*6659 PHY_EDGE_ROW_182_3_Left_1067
*6660 PHY_EDGE_ROW_182_3_Right_195
*6661 PHY_EDGE_ROW_183_1_Left_403
*6662 PHY_EDGE_ROW_183_1_Right_975
*6663 PHY_EDGE_ROW_183_2_Left_882
*6664 PHY_EDGE_ROW_183_2_Right_1161
*6665 PHY_EDGE_ROW_183_3_Left_1068
*6666 PHY_EDGE_ROW_183_3_Right_196
*6667 PHY_EDGE_ROW_184_1_Left_404
*6668 PHY_EDGE_ROW_184_1_Right_976
*6669 PHY_EDGE_ROW_184_2_Left_883
*6670 PHY_EDGE_ROW_184_2_Right_1162
*6671 PHY_EDGE_ROW_184_3_Left_1069
*6672 PHY_EDGE_ROW_184_3_Right_197
*6673 PHY_EDGE_ROW_185_1_Left_405
*6674 PHY_EDGE_ROW_185_1_Right_977
*6675 PHY_EDGE_ROW_185_2_Left_884
*6676 PHY_EDGE_ROW_185_2_Right_1163
*6677 PHY_EDGE_ROW_185_3_Left_1070
*6678 PHY_EDGE_ROW_185_3_Right_198
*6679 PHY_EDGE_ROW_186_1_Left_406
*6680 PHY_EDGE_ROW_186_1_Right_978
*6681 PHY_EDGE_ROW_186_2_Left_885
*6682 PHY_EDGE_ROW_186_2_Right_1164
*6683 PHY_EDGE_ROW_186_3_Left_1071
*6684 PHY_EDGE_ROW_186_3_Right_199
*6685 PHY_EDGE_ROW_187_1_Left_407
*6686 PHY_EDGE_ROW_187_1_Right_979
*6687 PHY_EDGE_ROW_187_2_Left_886
*6688 PHY_EDGE_ROW_187_2_Right_1165
*6689 PHY_EDGE_ROW_187_3_Left_1072
*6690 PHY_EDGE_ROW_187_3_Right_200
*6691 PHY_EDGE_ROW_188_1_Left_408
*6692 PHY_EDGE_ROW_188_1_Right_980
*6693 PHY_EDGE_ROW_188_2_Left_887
*6694 PHY_EDGE_ROW_188_2_Right_1166
*6695 PHY_EDGE_ROW_188_3_Left_1073
*6696 PHY_EDGE_ROW_188_3_Right_201
*6697 PHY_EDGE_ROW_189_1_Left_409
*6698 PHY_EDGE_ROW_189_1_Right_981
*6699 PHY_EDGE_ROW_189_2_Left_888
*6700 PHY_EDGE_ROW_189_2_Right_1167
*6701 PHY_EDGE_ROW_189_3_Left_1074
*6702 PHY_EDGE_ROW_189_3_Right_202
*6703 PHY_EDGE_ROW_18_1_Left_238
*6704 PHY_EDGE_ROW_18_1_Right_539
*6705 PHY_EDGE_ROW_18_2_Left_447
*6706 PHY_EDGE_ROW_18_2_Right_726
*6707 PHY_EDGE_ROW_18_3_Left_633
*6708 PHY_EDGE_ROW_18_3_Right_40
*6709 PHY_EDGE_ROW_190_1_Left_410
*6710 PHY_EDGE_ROW_190_1_Right_982
*6711 PHY_EDGE_ROW_190_2_Left_889
*6712 PHY_EDGE_ROW_190_2_Right_1168
*6713 PHY_EDGE_ROW_190_3_Left_1075
*6714 PHY_EDGE_ROW_190_3_Right_203
*6715 PHY_EDGE_ROW_191_1_Left_411
*6716 PHY_EDGE_ROW_191_1_Right_983
*6717 PHY_EDGE_ROW_191_2_Left_890
*6718 PHY_EDGE_ROW_191_2_Right_1169
*6719 PHY_EDGE_ROW_191_3_Left_1076
*6720 PHY_EDGE_ROW_191_3_Right_204
*6721 PHY_EDGE_ROW_192_1_Left_412
*6722 PHY_EDGE_ROW_192_1_Right_984
*6723 PHY_EDGE_ROW_192_2_Left_891
*6724 PHY_EDGE_ROW_192_2_Right_1170
*6725 PHY_EDGE_ROW_192_3_Left_1077
*6726 PHY_EDGE_ROW_192_3_Right_205
*6727 PHY_EDGE_ROW_193_1_Left_413
*6728 PHY_EDGE_ROW_193_1_Right_985
*6729 PHY_EDGE_ROW_193_2_Left_892
*6730 PHY_EDGE_ROW_193_2_Right_1171
*6731 PHY_EDGE_ROW_193_3_Left_1078
*6732 PHY_EDGE_ROW_193_3_Right_206
*6733 PHY_EDGE_ROW_194_1_Left_414
*6734 PHY_EDGE_ROW_194_1_Right_986
*6735 PHY_EDGE_ROW_194_2_Left_893
*6736 PHY_EDGE_ROW_194_2_Right_1172
*6737 PHY_EDGE_ROW_194_3_Left_1079
*6738 PHY_EDGE_ROW_194_3_Right_207
*6739 PHY_EDGE_ROW_195_1_Left_415
*6740 PHY_EDGE_ROW_195_1_Right_987
*6741 PHY_EDGE_ROW_195_2_Left_894
*6742 PHY_EDGE_ROW_195_2_Right_1173
*6743 PHY_EDGE_ROW_195_3_Left_1080
*6744 PHY_EDGE_ROW_195_3_Right_208
*6745 PHY_EDGE_ROW_196_1_Left_416
*6746 PHY_EDGE_ROW_196_1_Right_988
*6747 PHY_EDGE_ROW_196_2_Left_895
*6748 PHY_EDGE_ROW_196_2_Right_1174
*6749 PHY_EDGE_ROW_196_3_Left_1081
*6750 PHY_EDGE_ROW_196_3_Right_209
*6751 PHY_EDGE_ROW_197_1_Left_417
*6752 PHY_EDGE_ROW_197_1_Right_989
*6753 PHY_EDGE_ROW_197_2_Left_896
*6754 PHY_EDGE_ROW_197_2_Right_1175
*6755 PHY_EDGE_ROW_197_3_Left_1082
*6756 PHY_EDGE_ROW_197_3_Right_210
*6757 PHY_EDGE_ROW_198_1_Left_418
*6758 PHY_EDGE_ROW_198_1_Right_990
*6759 PHY_EDGE_ROW_198_2_Left_897
*6760 PHY_EDGE_ROW_198_2_Right_1176
*6761 PHY_EDGE_ROW_198_3_Left_1083
*6762 PHY_EDGE_ROW_198_3_Right_211
*6763 PHY_EDGE_ROW_199_1_Left_419
*6764 PHY_EDGE_ROW_199_1_Right_991
*6765 PHY_EDGE_ROW_199_2_Left_898
*6766 PHY_EDGE_ROW_199_2_Right_1177
*6767 PHY_EDGE_ROW_199_3_Left_1084
*6768 PHY_EDGE_ROW_199_3_Right_212
*6769 PHY_EDGE_ROW_19_1_Left_239
*6770 PHY_EDGE_ROW_19_1_Right_540
*6771 PHY_EDGE_ROW_19_2_Left_448
*6772 PHY_EDGE_ROW_19_2_Right_727
*6773 PHY_EDGE_ROW_19_3_Left_634
*6774 PHY_EDGE_ROW_19_3_Right_41
*6775 PHY_EDGE_ROW_1_Left_222
*6776 PHY_EDGE_ROW_1_Right_1
*6777 PHY_EDGE_ROW_200_1_Left_420
*6778 PHY_EDGE_ROW_200_1_Right_992
*6779 PHY_EDGE_ROW_200_2_Left_899
*6780 PHY_EDGE_ROW_200_2_Right_1178
*6781 PHY_EDGE_ROW_200_3_Left_1085
*6782 PHY_EDGE_ROW_200_3_Right_213
*6783 PHY_EDGE_ROW_201_1_Left_421
*6784 PHY_EDGE_ROW_201_1_Right_993
*6785 PHY_EDGE_ROW_201_2_Left_900
*6786 PHY_EDGE_ROW_201_2_Right_1179
*6787 PHY_EDGE_ROW_201_3_Left_1086
*6788 PHY_EDGE_ROW_201_3_Right_214
*6789 PHY_EDGE_ROW_202_1_Left_422
*6790 PHY_EDGE_ROW_202_1_Right_994
*6791 PHY_EDGE_ROW_202_2_Left_901
*6792 PHY_EDGE_ROW_202_2_Right_1180
*6793 PHY_EDGE_ROW_202_3_Left_1087
*6794 PHY_EDGE_ROW_202_3_Right_215
*6795 PHY_EDGE_ROW_203_1_Left_423
*6796 PHY_EDGE_ROW_203_1_Right_995
*6797 PHY_EDGE_ROW_203_2_Left_902
*6798 PHY_EDGE_ROW_203_2_Right_1181
*6799 PHY_EDGE_ROW_203_3_Left_1088
*6800 PHY_EDGE_ROW_203_3_Right_216
*6801 PHY_EDGE_ROW_204_1_Left_424
*6802 PHY_EDGE_ROW_204_1_Right_996
*6803 PHY_EDGE_ROW_204_2_Left_903
*6804 PHY_EDGE_ROW_204_2_Right_1182
*6805 PHY_EDGE_ROW_204_3_Left_1089
*6806 PHY_EDGE_ROW_204_3_Right_217
*6807 PHY_EDGE_ROW_205_1_Left_425
*6808 PHY_EDGE_ROW_205_1_Right_997
*6809 PHY_EDGE_ROW_205_2_Left_904
*6810 PHY_EDGE_ROW_205_2_Right_1183
*6811 PHY_EDGE_ROW_205_3_Left_1090
*6812 PHY_EDGE_ROW_205_3_Right_218
*6813 PHY_EDGE_ROW_206_1_Left_426
*6814 PHY_EDGE_ROW_206_1_Right_998
*6815 PHY_EDGE_ROW_206_2_Left_905
*6816 PHY_EDGE_ROW_206_2_Right_1184
*6817 PHY_EDGE_ROW_206_3_Left_1091
*6818 PHY_EDGE_ROW_206_3_Right_219
*6819 PHY_EDGE_ROW_207_1_Left_427
*6820 PHY_EDGE_ROW_207_1_Right_999
*6821 PHY_EDGE_ROW_207_2_Left_906
*6822 PHY_EDGE_ROW_207_2_Right_1185
*6823 PHY_EDGE_ROW_207_3_Left_1092
*6824 PHY_EDGE_ROW_207_3_Right_220
*6825 PHY_EDGE_ROW_208_Left_428
*6826 PHY_EDGE_ROW_208_Right_22
*6827 PHY_EDGE_ROW_209_Left_429
*6828 PHY_EDGE_ROW_209_Right_23
*6829 PHY_EDGE_ROW_20_1_Left_240
*6830 PHY_EDGE_ROW_20_1_Right_541
*6831 PHY_EDGE_ROW_20_2_Left_449
*6832 PHY_EDGE_ROW_20_2_Right_728
*6833 PHY_EDGE_ROW_20_3_Left_635
*6834 PHY_EDGE_ROW_20_3_Right_42
*6835 PHY_EDGE_ROW_210_Left_430
*6836 PHY_EDGE_ROW_210_Right_24
*6837 PHY_EDGE_ROW_211_Left_431
*6838 PHY_EDGE_ROW_211_Right_25
*6839 PHY_EDGE_ROW_212_Left_432
*6840 PHY_EDGE_ROW_212_Right_26
*6841 PHY_EDGE_ROW_213_Left_433
*6842 PHY_EDGE_ROW_213_Right_27
*6843 PHY_EDGE_ROW_214_Left_434
*6844 PHY_EDGE_ROW_214_Right_28
*6845 PHY_EDGE_ROW_215_Left_435
*6846 PHY_EDGE_ROW_215_Right_29
*6847 PHY_EDGE_ROW_216_Left_436
*6848 PHY_EDGE_ROW_216_Right_30
*6849 PHY_EDGE_ROW_217_Left_437
*6850 PHY_EDGE_ROW_217_Right_31
*6851 PHY_EDGE_ROW_218_Left_438
*6852 PHY_EDGE_ROW_218_Right_32
*6853 PHY_EDGE_ROW_219_Left_439
*6854 PHY_EDGE_ROW_219_Right_33
*6855 PHY_EDGE_ROW_21_1_Left_241
*6856 PHY_EDGE_ROW_21_1_Right_542
*6857 PHY_EDGE_ROW_21_2_Left_450
*6858 PHY_EDGE_ROW_21_2_Right_729
*6859 PHY_EDGE_ROW_21_3_Left_636
*6860 PHY_EDGE_ROW_21_3_Right_43
*6861 PHY_EDGE_ROW_220_Left_440
*6862 PHY_EDGE_ROW_220_Right_34
*6863 PHY_EDGE_ROW_22_1_Left_242
*6864 PHY_EDGE_ROW_22_1_Right_543
*6865 PHY_EDGE_ROW_22_2_Left_451
*6866 PHY_EDGE_ROW_22_2_Right_730
*6867 PHY_EDGE_ROW_22_3_Left_637
*6868 PHY_EDGE_ROW_22_3_Right_44
*6869 PHY_EDGE_ROW_23_1_Left_243
*6870 PHY_EDGE_ROW_23_1_Right_544
*6871 PHY_EDGE_ROW_23_2_Left_452
*6872 PHY_EDGE_ROW_23_2_Right_731
*6873 PHY_EDGE_ROW_23_3_Left_638
*6874 PHY_EDGE_ROW_23_3_Right_45
*6875 PHY_EDGE_ROW_24_1_Left_244
*6876 PHY_EDGE_ROW_24_1_Right_545
*6877 PHY_EDGE_ROW_24_2_Left_453
*6878 PHY_EDGE_ROW_24_2_Right_732
*6879 PHY_EDGE_ROW_24_3_Left_639
*6880 PHY_EDGE_ROW_24_3_Right_46
*6881 PHY_EDGE_ROW_25_1_Left_245
*6882 PHY_EDGE_ROW_25_1_Right_546
*6883 PHY_EDGE_ROW_25_2_Left_454
*6884 PHY_EDGE_ROW_25_2_Right_733
*6885 PHY_EDGE_ROW_25_3_Left_640
*6886 PHY_EDGE_ROW_25_3_Right_47
*6887 PHY_EDGE_ROW_26_1_Left_246
*6888 PHY_EDGE_ROW_26_1_Right_547
*6889 PHY_EDGE_ROW_26_2_Left_455
*6890 PHY_EDGE_ROW_26_2_Right_734
*6891 PHY_EDGE_ROW_26_3_Left_641
*6892 PHY_EDGE_ROW_26_3_Right_48
*6893 PHY_EDGE_ROW_27_1_Left_247
*6894 PHY_EDGE_ROW_27_1_Right_548
*6895 PHY_EDGE_ROW_27_2_Left_456
*6896 PHY_EDGE_ROW_27_2_Right_735
*6897 PHY_EDGE_ROW_27_3_Left_642
*6898 PHY_EDGE_ROW_27_3_Right_49
*6899 PHY_EDGE_ROW_28_1_Left_248
*6900 PHY_EDGE_ROW_28_1_Right_549
*6901 PHY_EDGE_ROW_28_2_Left_457
*6902 PHY_EDGE_ROW_28_2_Right_736
*6903 PHY_EDGE_ROW_28_3_Left_643
*6904 PHY_EDGE_ROW_28_3_Right_50
*6905 PHY_EDGE_ROW_29_1_Left_249
*6906 PHY_EDGE_ROW_29_1_Right_550
*6907 PHY_EDGE_ROW_29_2_Left_458
*6908 PHY_EDGE_ROW_29_2_Right_737
*6909 PHY_EDGE_ROW_29_3_Left_644
*6910 PHY_EDGE_ROW_29_3_Right_51
*6911 PHY_EDGE_ROW_2_Left_223
*6912 PHY_EDGE_ROW_2_Right_2
*6913 PHY_EDGE_ROW_30_1_Left_250
*6914 PHY_EDGE_ROW_30_1_Right_551
*6915 PHY_EDGE_ROW_30_2_Left_459
*6916 PHY_EDGE_ROW_30_2_Right_738
*6917 PHY_EDGE_ROW_30_3_Left_645
*6918 PHY_EDGE_ROW_30_3_Right_52
*6919 PHY_EDGE_ROW_31_1_Left_251
*6920 PHY_EDGE_ROW_31_1_Right_552
*6921 PHY_EDGE_ROW_31_2_Left_460
*6922 PHY_EDGE_ROW_31_2_Right_739
*6923 PHY_EDGE_ROW_31_3_Left_646
*6924 PHY_EDGE_ROW_31_3_Right_53
*6925 PHY_EDGE_ROW_32_1_Left_252
*6926 PHY_EDGE_ROW_32_1_Right_553
*6927 PHY_EDGE_ROW_32_2_Left_461
*6928 PHY_EDGE_ROW_32_2_Right_740
*6929 PHY_EDGE_ROW_32_3_Left_647
*6930 PHY_EDGE_ROW_32_3_Right_54
*6931 PHY_EDGE_ROW_33_1_Left_253
*6932 PHY_EDGE_ROW_33_1_Right_554
*6933 PHY_EDGE_ROW_33_2_Left_462
*6934 PHY_EDGE_ROW_33_2_Right_741
*6935 PHY_EDGE_ROW_33_3_Left_648
*6936 PHY_EDGE_ROW_33_3_Right_55
*6937 PHY_EDGE_ROW_34_1_Left_254
*6938 PHY_EDGE_ROW_34_1_Right_555
*6939 PHY_EDGE_ROW_34_2_Left_463
*6940 PHY_EDGE_ROW_34_2_Right_742
*6941 PHY_EDGE_ROW_34_3_Left_649
*6942 PHY_EDGE_ROW_34_3_Right_56
*6943 PHY_EDGE_ROW_35_1_Left_255
*6944 PHY_EDGE_ROW_35_1_Right_556
*6945 PHY_EDGE_ROW_35_2_Left_464
*6946 PHY_EDGE_ROW_35_2_Right_743
*6947 PHY_EDGE_ROW_35_3_Left_650
*6948 PHY_EDGE_ROW_35_3_Right_57
*6949 PHY_EDGE_ROW_36_1_Left_256
*6950 PHY_EDGE_ROW_36_1_Right_557
*6951 PHY_EDGE_ROW_36_2_Left_465
*6952 PHY_EDGE_ROW_36_2_Right_744
*6953 PHY_EDGE_ROW_36_3_Left_651
*6954 PHY_EDGE_ROW_36_3_Right_58
*6955 PHY_EDGE_ROW_37_1_Left_257
*6956 PHY_EDGE_ROW_37_1_Right_558
*6957 PHY_EDGE_ROW_37_2_Left_466
*6958 PHY_EDGE_ROW_37_2_Right_745
*6959 PHY_EDGE_ROW_37_3_Left_652
*6960 PHY_EDGE_ROW_37_3_Right_59
*6961 PHY_EDGE_ROW_38_1_Left_258
*6962 PHY_EDGE_ROW_38_1_Right_559
*6963 PHY_EDGE_ROW_38_2_Left_467
*6964 PHY_EDGE_ROW_38_2_Right_746
*6965 PHY_EDGE_ROW_38_3_Left_653
*6966 PHY_EDGE_ROW_38_3_Right_60
*6967 PHY_EDGE_ROW_39_1_Left_259
*6968 PHY_EDGE_ROW_39_1_Right_560
*6969 PHY_EDGE_ROW_39_2_Left_468
*6970 PHY_EDGE_ROW_39_2_Right_747
*6971 PHY_EDGE_ROW_39_3_Left_654
*6972 PHY_EDGE_ROW_39_3_Right_61
*6973 PHY_EDGE_ROW_3_Left_224
*6974 PHY_EDGE_ROW_3_Right_3
*6975 PHY_EDGE_ROW_40_1_Left_260
*6976 PHY_EDGE_ROW_40_1_Right_561
*6977 PHY_EDGE_ROW_40_2_Left_469
*6978 PHY_EDGE_ROW_40_2_Right_748
*6979 PHY_EDGE_ROW_40_3_Left_655
*6980 PHY_EDGE_ROW_40_3_Right_62
*6981 PHY_EDGE_ROW_41_1_Left_261
*6982 PHY_EDGE_ROW_41_1_Right_562
*6983 PHY_EDGE_ROW_41_2_Left_470
*6984 PHY_EDGE_ROW_41_2_Right_749
*6985 PHY_EDGE_ROW_41_3_Left_656
*6986 PHY_EDGE_ROW_41_3_Right_63
*6987 PHY_EDGE_ROW_42_1_Left_262
*6988 PHY_EDGE_ROW_42_1_Right_563
*6989 PHY_EDGE_ROW_42_2_Left_471
*6990 PHY_EDGE_ROW_42_2_Right_750
*6991 PHY_EDGE_ROW_42_3_Left_657
*6992 PHY_EDGE_ROW_42_3_Right_64
*6993 PHY_EDGE_ROW_43_1_Left_263
*6994 PHY_EDGE_ROW_43_1_Right_564
*6995 PHY_EDGE_ROW_43_2_Left_472
*6996 PHY_EDGE_ROW_43_2_Right_751
*6997 PHY_EDGE_ROW_43_3_Left_658
*6998 PHY_EDGE_ROW_43_3_Right_65
*6999 PHY_EDGE_ROW_44_1_Left_264
*7000 PHY_EDGE_ROW_44_1_Right_565
*7001 PHY_EDGE_ROW_44_2_Left_473
*7002 PHY_EDGE_ROW_44_2_Right_752
*7003 PHY_EDGE_ROW_44_3_Left_659
*7004 PHY_EDGE_ROW_44_3_Right_66
*7005 PHY_EDGE_ROW_45_1_Left_265
*7006 PHY_EDGE_ROW_45_1_Right_566
*7007 PHY_EDGE_ROW_45_2_Left_474
*7008 PHY_EDGE_ROW_45_2_Right_753
*7009 PHY_EDGE_ROW_45_3_Left_660
*7010 PHY_EDGE_ROW_45_3_Right_67
*7011 PHY_EDGE_ROW_46_1_Left_266
*7012 PHY_EDGE_ROW_46_1_Right_567
*7013 PHY_EDGE_ROW_46_2_Left_475
*7014 PHY_EDGE_ROW_46_2_Right_754
*7015 PHY_EDGE_ROW_46_3_Left_661
*7016 PHY_EDGE_ROW_46_3_Right_68
*7017 PHY_EDGE_ROW_47_1_Left_267
*7018 PHY_EDGE_ROW_47_1_Right_568
*7019 PHY_EDGE_ROW_47_2_Left_476
*7020 PHY_EDGE_ROW_47_2_Right_755
*7021 PHY_EDGE_ROW_47_3_Left_662
*7022 PHY_EDGE_ROW_47_3_Right_69
*7023 PHY_EDGE_ROW_48_1_Left_268
*7024 PHY_EDGE_ROW_48_1_Right_569
*7025 PHY_EDGE_ROW_48_2_Left_477
*7026 PHY_EDGE_ROW_48_2_Right_756
*7027 PHY_EDGE_ROW_48_3_Left_663
*7028 PHY_EDGE_ROW_48_3_Right_70
*7029 PHY_EDGE_ROW_49_1_Left_269
*7030 PHY_EDGE_ROW_49_1_Right_570
*7031 PHY_EDGE_ROW_49_2_Left_478
*7032 PHY_EDGE_ROW_49_2_Right_757
*7033 PHY_EDGE_ROW_49_3_Left_664
*7034 PHY_EDGE_ROW_49_3_Right_71
*7035 PHY_EDGE_ROW_4_Left_225
*7036 PHY_EDGE_ROW_4_Right_4
*7037 PHY_EDGE_ROW_50_1_Left_270
*7038 PHY_EDGE_ROW_50_1_Right_571
*7039 PHY_EDGE_ROW_50_2_Left_479
*7040 PHY_EDGE_ROW_50_2_Right_758
*7041 PHY_EDGE_ROW_50_3_Left_665
*7042 PHY_EDGE_ROW_50_3_Right_72
*7043 PHY_EDGE_ROW_51_1_Left_271
*7044 PHY_EDGE_ROW_51_1_Right_572
*7045 PHY_EDGE_ROW_51_2_Left_480
*7046 PHY_EDGE_ROW_51_2_Right_759
*7047 PHY_EDGE_ROW_51_3_Left_666
*7048 PHY_EDGE_ROW_51_3_Right_73
*7049 PHY_EDGE_ROW_52_1_Left_272
*7050 PHY_EDGE_ROW_52_1_Right_573
*7051 PHY_EDGE_ROW_52_2_Left_481
*7052 PHY_EDGE_ROW_52_2_Right_760
*7053 PHY_EDGE_ROW_52_3_Left_667
*7054 PHY_EDGE_ROW_52_3_Right_74
*7055 PHY_EDGE_ROW_53_1_Left_273
*7056 PHY_EDGE_ROW_53_1_Right_574
*7057 PHY_EDGE_ROW_53_2_Left_482
*7058 PHY_EDGE_ROW_53_2_Right_761
*7059 PHY_EDGE_ROW_53_3_Left_668
*7060 PHY_EDGE_ROW_53_3_Right_75
*7061 PHY_EDGE_ROW_54_1_Left_274
*7062 PHY_EDGE_ROW_54_1_Right_575
*7063 PHY_EDGE_ROW_54_2_Left_483
*7064 PHY_EDGE_ROW_54_2_Right_762
*7065 PHY_EDGE_ROW_54_3_Left_669
*7066 PHY_EDGE_ROW_54_3_Right_76
*7067 PHY_EDGE_ROW_55_1_Left_275
*7068 PHY_EDGE_ROW_55_1_Right_576
*7069 PHY_EDGE_ROW_55_2_Left_484
*7070 PHY_EDGE_ROW_55_2_Right_763
*7071 PHY_EDGE_ROW_55_3_Left_670
*7072 PHY_EDGE_ROW_55_3_Right_77
*7073 PHY_EDGE_ROW_56_1_Left_276
*7074 PHY_EDGE_ROW_56_1_Right_577
*7075 PHY_EDGE_ROW_56_2_Left_485
*7076 PHY_EDGE_ROW_56_2_Right_764
*7077 PHY_EDGE_ROW_56_3_Left_671
*7078 PHY_EDGE_ROW_56_3_Right_78
*7079 PHY_EDGE_ROW_57_1_Left_277
*7080 PHY_EDGE_ROW_57_1_Right_578
*7081 PHY_EDGE_ROW_57_2_Left_486
*7082 PHY_EDGE_ROW_57_2_Right_765
*7083 PHY_EDGE_ROW_57_3_Left_672
*7084 PHY_EDGE_ROW_57_3_Right_79
*7085 PHY_EDGE_ROW_58_1_Left_278
*7086 PHY_EDGE_ROW_58_1_Right_579
*7087 PHY_EDGE_ROW_58_2_Left_487
*7088 PHY_EDGE_ROW_58_2_Right_766
*7089 PHY_EDGE_ROW_58_3_Left_673
*7090 PHY_EDGE_ROW_58_3_Right_80
*7091 PHY_EDGE_ROW_59_1_Left_279
*7092 PHY_EDGE_ROW_59_1_Right_580
*7093 PHY_EDGE_ROW_59_2_Left_488
*7094 PHY_EDGE_ROW_59_2_Right_767
*7095 PHY_EDGE_ROW_59_3_Left_674
*7096 PHY_EDGE_ROW_59_3_Right_81
*7097 PHY_EDGE_ROW_5_Left_226
*7098 PHY_EDGE_ROW_5_Right_5
*7099 PHY_EDGE_ROW_60_1_Left_280
*7100 PHY_EDGE_ROW_60_1_Right_581
*7101 PHY_EDGE_ROW_60_2_Left_489
*7102 PHY_EDGE_ROW_60_2_Right_768
*7103 PHY_EDGE_ROW_60_3_Left_675
*7104 PHY_EDGE_ROW_60_3_Right_82
*7105 PHY_EDGE_ROW_61_1_Left_281
*7106 PHY_EDGE_ROW_61_1_Right_582
*7107 PHY_EDGE_ROW_61_2_Left_490
*7108 PHY_EDGE_ROW_61_2_Right_769
*7109 PHY_EDGE_ROW_61_3_Left_676
*7110 PHY_EDGE_ROW_61_3_Right_83
*7111 PHY_EDGE_ROW_62_1_Left_282
*7112 PHY_EDGE_ROW_62_1_Right_583
*7113 PHY_EDGE_ROW_62_2_Left_491
*7114 PHY_EDGE_ROW_62_2_Right_770
*7115 PHY_EDGE_ROW_62_3_Left_677
*7116 PHY_EDGE_ROW_62_3_Right_84
*7117 PHY_EDGE_ROW_63_1_Left_283
*7118 PHY_EDGE_ROW_63_1_Right_584
*7119 PHY_EDGE_ROW_63_2_Left_492
*7120 PHY_EDGE_ROW_63_2_Right_771
*7121 PHY_EDGE_ROW_63_3_Left_678
*7122 PHY_EDGE_ROW_63_3_Right_85
*7123 PHY_EDGE_ROW_64_1_Left_284
*7124 PHY_EDGE_ROW_64_1_Right_585
*7125 PHY_EDGE_ROW_64_2_Left_493
*7126 PHY_EDGE_ROW_64_2_Right_772
*7127 PHY_EDGE_ROW_64_3_Left_679
*7128 PHY_EDGE_ROW_64_3_Right_86
*7129 PHY_EDGE_ROW_65_1_Left_285
*7130 PHY_EDGE_ROW_65_1_Right_586
*7131 PHY_EDGE_ROW_65_2_Left_494
*7132 PHY_EDGE_ROW_65_2_Right_773
*7133 PHY_EDGE_ROW_65_3_Left_680
*7134 PHY_EDGE_ROW_65_3_Right_87
*7135 PHY_EDGE_ROW_66_1_Left_286
*7136 PHY_EDGE_ROW_66_1_Right_587
*7137 PHY_EDGE_ROW_66_2_Left_495
*7138 PHY_EDGE_ROW_66_2_Right_774
*7139 PHY_EDGE_ROW_66_3_Left_681
*7140 PHY_EDGE_ROW_66_3_Right_88
*7141 PHY_EDGE_ROW_67_1_Left_287
*7142 PHY_EDGE_ROW_67_1_Right_588
*7143 PHY_EDGE_ROW_67_2_Left_496
*7144 PHY_EDGE_ROW_67_2_Right_775
*7145 PHY_EDGE_ROW_67_3_Left_682
*7146 PHY_EDGE_ROW_67_3_Right_89
*7147 PHY_EDGE_ROW_68_1_Left_288
*7148 PHY_EDGE_ROW_68_1_Right_589
*7149 PHY_EDGE_ROW_68_2_Left_497
*7150 PHY_EDGE_ROW_68_2_Right_776
*7151 PHY_EDGE_ROW_68_3_Left_683
*7152 PHY_EDGE_ROW_68_3_Right_90
*7153 PHY_EDGE_ROW_69_1_Left_289
*7154 PHY_EDGE_ROW_69_1_Right_590
*7155 PHY_EDGE_ROW_69_2_Left_498
*7156 PHY_EDGE_ROW_69_2_Right_777
*7157 PHY_EDGE_ROW_69_3_Left_684
*7158 PHY_EDGE_ROW_69_3_Right_91
*7159 PHY_EDGE_ROW_6_Left_227
*7160 PHY_EDGE_ROW_6_Right_6
*7161 PHY_EDGE_ROW_70_1_Left_290
*7162 PHY_EDGE_ROW_70_1_Right_591
*7163 PHY_EDGE_ROW_70_2_Left_499
*7164 PHY_EDGE_ROW_70_2_Right_778
*7165 PHY_EDGE_ROW_70_3_Left_685
*7166 PHY_EDGE_ROW_70_3_Right_92
*7167 PHY_EDGE_ROW_71_1_Left_291
*7168 PHY_EDGE_ROW_71_1_Right_592
*7169 PHY_EDGE_ROW_71_2_Left_500
*7170 PHY_EDGE_ROW_71_2_Right_779
*7171 PHY_EDGE_ROW_71_3_Left_686
*7172 PHY_EDGE_ROW_71_3_Right_93
*7173 PHY_EDGE_ROW_72_1_Left_292
*7174 PHY_EDGE_ROW_72_1_Right_593
*7175 PHY_EDGE_ROW_72_2_Left_501
*7176 PHY_EDGE_ROW_72_2_Right_780
*7177 PHY_EDGE_ROW_72_3_Left_687
*7178 PHY_EDGE_ROW_72_3_Right_94
*7179 PHY_EDGE_ROW_73_1_Left_293
*7180 PHY_EDGE_ROW_73_1_Right_594
*7181 PHY_EDGE_ROW_73_2_Left_502
*7182 PHY_EDGE_ROW_73_2_Right_781
*7183 PHY_EDGE_ROW_73_3_Left_688
*7184 PHY_EDGE_ROW_73_3_Right_95
*7185 PHY_EDGE_ROW_74_1_Left_294
*7186 PHY_EDGE_ROW_74_1_Right_595
*7187 PHY_EDGE_ROW_74_2_Left_503
*7188 PHY_EDGE_ROW_74_2_Right_782
*7189 PHY_EDGE_ROW_74_3_Left_689
*7190 PHY_EDGE_ROW_74_3_Right_96
*7191 PHY_EDGE_ROW_75_1_Left_295
*7192 PHY_EDGE_ROW_75_1_Right_596
*7193 PHY_EDGE_ROW_75_2_Left_504
*7194 PHY_EDGE_ROW_75_2_Right_783
*7195 PHY_EDGE_ROW_75_3_Left_690
*7196 PHY_EDGE_ROW_75_3_Right_97
*7197 PHY_EDGE_ROW_76_1_Left_296
*7198 PHY_EDGE_ROW_76_1_Right_597
*7199 PHY_EDGE_ROW_76_2_Left_505
*7200 PHY_EDGE_ROW_76_2_Right_784
*7201 PHY_EDGE_ROW_76_3_Left_691
*7202 PHY_EDGE_ROW_76_3_Right_98
*7203 PHY_EDGE_ROW_77_1_Left_297
*7204 PHY_EDGE_ROW_77_1_Right_598
*7205 PHY_EDGE_ROW_77_2_Left_506
*7206 PHY_EDGE_ROW_77_2_Right_785
*7207 PHY_EDGE_ROW_77_3_Left_692
*7208 PHY_EDGE_ROW_77_3_Right_99
*7209 PHY_EDGE_ROW_78_1_Left_298
*7210 PHY_EDGE_ROW_78_1_Right_599
*7211 PHY_EDGE_ROW_78_2_Left_507
*7212 PHY_EDGE_ROW_78_2_Right_786
*7213 PHY_EDGE_ROW_78_3_Left_693
*7214 PHY_EDGE_ROW_78_3_Right_100
*7215 PHY_EDGE_ROW_79_1_Left_299
*7216 PHY_EDGE_ROW_79_1_Right_600
*7217 PHY_EDGE_ROW_79_2_Left_508
*7218 PHY_EDGE_ROW_79_2_Right_787
*7219 PHY_EDGE_ROW_79_3_Left_694
*7220 PHY_EDGE_ROW_79_3_Right_101
*7221 PHY_EDGE_ROW_7_Left_228
*7222 PHY_EDGE_ROW_7_Right_7
*7223 PHY_EDGE_ROW_80_1_Left_300
*7224 PHY_EDGE_ROW_80_1_Right_601
*7225 PHY_EDGE_ROW_80_2_Left_509
*7226 PHY_EDGE_ROW_80_2_Right_788
*7227 PHY_EDGE_ROW_80_3_Left_695
*7228 PHY_EDGE_ROW_80_3_Right_102
*7229 PHY_EDGE_ROW_81_1_Left_301
*7230 PHY_EDGE_ROW_81_1_Right_602
*7231 PHY_EDGE_ROW_81_2_Left_510
*7232 PHY_EDGE_ROW_81_2_Right_789
*7233 PHY_EDGE_ROW_81_3_Left_696
*7234 PHY_EDGE_ROW_81_3_Right_103
*7235 PHY_EDGE_ROW_82_1_Left_302
*7236 PHY_EDGE_ROW_82_1_Right_603
*7237 PHY_EDGE_ROW_82_2_Left_511
*7238 PHY_EDGE_ROW_82_2_Right_790
*7239 PHY_EDGE_ROW_82_3_Left_697
*7240 PHY_EDGE_ROW_82_3_Right_104
*7241 PHY_EDGE_ROW_83_1_Left_303
*7242 PHY_EDGE_ROW_83_1_Right_604
*7243 PHY_EDGE_ROW_83_2_Left_512
*7244 PHY_EDGE_ROW_83_2_Right_791
*7245 PHY_EDGE_ROW_83_3_Left_698
*7246 PHY_EDGE_ROW_83_3_Right_105
*7247 PHY_EDGE_ROW_84_1_Left_304
*7248 PHY_EDGE_ROW_84_1_Right_605
*7249 PHY_EDGE_ROW_84_2_Left_513
*7250 PHY_EDGE_ROW_84_2_Right_792
*7251 PHY_EDGE_ROW_84_3_Left_699
*7252 PHY_EDGE_ROW_84_3_Right_106
*7253 PHY_EDGE_ROW_85_1_Left_305
*7254 PHY_EDGE_ROW_85_1_Right_606
*7255 PHY_EDGE_ROW_85_2_Left_514
*7256 PHY_EDGE_ROW_85_2_Right_793
*7257 PHY_EDGE_ROW_85_3_Left_700
*7258 PHY_EDGE_ROW_85_3_Right_107
*7259 PHY_EDGE_ROW_86_1_Left_306
*7260 PHY_EDGE_ROW_86_1_Right_607
*7261 PHY_EDGE_ROW_86_2_Left_515
*7262 PHY_EDGE_ROW_86_2_Right_794
*7263 PHY_EDGE_ROW_86_3_Left_701
*7264 PHY_EDGE_ROW_86_3_Right_108
*7265 PHY_EDGE_ROW_87_1_Left_307
*7266 PHY_EDGE_ROW_87_1_Right_608
*7267 PHY_EDGE_ROW_87_2_Left_516
*7268 PHY_EDGE_ROW_87_2_Right_795
*7269 PHY_EDGE_ROW_87_3_Left_702
*7270 PHY_EDGE_ROW_87_3_Right_109
*7271 PHY_EDGE_ROW_88_1_Left_308
*7272 PHY_EDGE_ROW_88_1_Right_609
*7273 PHY_EDGE_ROW_88_2_Left_517
*7274 PHY_EDGE_ROW_88_2_Right_796
*7275 PHY_EDGE_ROW_88_3_Left_703
*7276 PHY_EDGE_ROW_88_3_Right_110
*7277 PHY_EDGE_ROW_89_1_Left_309
*7278 PHY_EDGE_ROW_89_1_Right_610
*7279 PHY_EDGE_ROW_89_2_Left_518
*7280 PHY_EDGE_ROW_89_2_Right_797
*7281 PHY_EDGE_ROW_89_3_Left_704
*7282 PHY_EDGE_ROW_89_3_Right_111
*7283 PHY_EDGE_ROW_8_Left_229
*7284 PHY_EDGE_ROW_8_Right_8
*7285 PHY_EDGE_ROW_90_1_Left_310
*7286 PHY_EDGE_ROW_90_1_Right_611
*7287 PHY_EDGE_ROW_90_2_Left_519
*7288 PHY_EDGE_ROW_90_2_Right_798
*7289 PHY_EDGE_ROW_90_3_Left_705
*7290 PHY_EDGE_ROW_90_3_Right_112
*7291 PHY_EDGE_ROW_91_1_Left_311
*7292 PHY_EDGE_ROW_91_1_Right_612
*7293 PHY_EDGE_ROW_91_2_Left_520
*7294 PHY_EDGE_ROW_91_2_Right_799
*7295 PHY_EDGE_ROW_91_3_Left_706
*7296 PHY_EDGE_ROW_91_3_Right_113
*7297 PHY_EDGE_ROW_92_1_Left_312
*7298 PHY_EDGE_ROW_92_1_Right_613
*7299 PHY_EDGE_ROW_92_2_Left_521
*7300 PHY_EDGE_ROW_92_2_Right_800
*7301 PHY_EDGE_ROW_92_3_Left_707
*7302 PHY_EDGE_ROW_92_3_Right_114
*7303 PHY_EDGE_ROW_93_1_Left_313
*7304 PHY_EDGE_ROW_93_1_Right_614
*7305 PHY_EDGE_ROW_93_2_Left_522
*7306 PHY_EDGE_ROW_93_2_Right_801
*7307 PHY_EDGE_ROW_93_3_Left_708
*7308 PHY_EDGE_ROW_93_3_Right_115
*7309 PHY_EDGE_ROW_94_1_Left_314
*7310 PHY_EDGE_ROW_94_1_Right_615
*7311 PHY_EDGE_ROW_94_2_Left_523
*7312 PHY_EDGE_ROW_94_2_Right_802
*7313 PHY_EDGE_ROW_94_3_Left_709
*7314 PHY_EDGE_ROW_94_3_Right_116
*7315 PHY_EDGE_ROW_95_1_Left_315
*7316 PHY_EDGE_ROW_95_1_Right_616
*7317 PHY_EDGE_ROW_95_2_Left_524
*7318 PHY_EDGE_ROW_95_2_Right_803
*7319 PHY_EDGE_ROW_95_3_Left_710
*7320 PHY_EDGE_ROW_95_3_Right_117
*7321 PHY_EDGE_ROW_96_1_Left_316
*7322 PHY_EDGE_ROW_96_1_Right_617
*7323 PHY_EDGE_ROW_96_2_Left_525
*7324 PHY_EDGE_ROW_96_2_Right_804
*7325 PHY_EDGE_ROW_96_3_Left_711
*7326 PHY_EDGE_ROW_96_3_Right_118
*7327 PHY_EDGE_ROW_97_1_Left_317
*7328 PHY_EDGE_ROW_97_1_Right_618
*7329 PHY_EDGE_ROW_97_2_Left_526
*7330 PHY_EDGE_ROW_97_2_Right_805
*7331 PHY_EDGE_ROW_97_3_Left_712
*7332 PHY_EDGE_ROW_97_3_Right_119
*7333 PHY_EDGE_ROW_98_1_Left_318
*7334 PHY_EDGE_ROW_98_1_Right_619
*7335 PHY_EDGE_ROW_98_2_Left_527
*7336 PHY_EDGE_ROW_98_2_Right_806
*7337 PHY_EDGE_ROW_98_3_Left_713
*7338 PHY_EDGE_ROW_98_3_Right_120
*7339 PHY_EDGE_ROW_99_1_Left_319
*7340 PHY_EDGE_ROW_99_1_Right_620
*7341 PHY_EDGE_ROW_99_2_Left_528
*7342 PHY_EDGE_ROW_99_2_Right_807
*7343 PHY_EDGE_ROW_99_3_Left_714
*7344 PHY_EDGE_ROW_99_3_Right_121
*7345 PHY_EDGE_ROW_9_Left_230
*7346 PHY_EDGE_ROW_9_Right_9
*7347 TAP_TAPCELL_ROW_0_1186
*7348 TAP_TAPCELL_ROW_0_1187
*7349 TAP_TAPCELL_ROW_0_1188
*7350 TAP_TAPCELL_ROW_0_1189
*7351 TAP_TAPCELL_ROW_0_1190
*7352 TAP_TAPCELL_ROW_0_1191
*7353 TAP_TAPCELL_ROW_0_1192
*7354 TAP_TAPCELL_ROW_0_1193
*7355 TAP_TAPCELL_ROW_0_1194
*7356 TAP_TAPCELL_ROW_0_1195
*7357 TAP_TAPCELL_ROW_0_1196
*7358 TAP_TAPCELL_ROW_0_1197
*7359 TAP_TAPCELL_ROW_0_1198
*7360 TAP_TAPCELL_ROW_0_1199
*7361 TAP_TAPCELL_ROW_0_1200
*7362 TAP_TAPCELL_ROW_0_1201
*7363 TAP_TAPCELL_ROW_0_1202
*7364 TAP_TAPCELL_ROW_0_1203
*7365 TAP_TAPCELL_ROW_0_1204
*7366 TAP_TAPCELL_ROW_0_1205
*7367 TAP_TAPCELL_ROW_0_1206
*7368 TAP_TAPCELL_ROW_0_1207
*7369 TAP_TAPCELL_ROW_0_1208
*7370 TAP_TAPCELL_ROW_0_1209
*7371 TAP_TAPCELL_ROW_0_1210
*7372 TAP_TAPCELL_ROW_0_1211
*7373 TAP_TAPCELL_ROW_0_1212
*7374 TAP_TAPCELL_ROW_0_1213
*7375 TAP_TAPCELL_ROW_0_1214
*7376 TAP_TAPCELL_ROW_0_1215
*7377 TAP_TAPCELL_ROW_0_1216
*7378 TAP_TAPCELL_ROW_0_1217
*7379 TAP_TAPCELL_ROW_0_1218
*7380 TAP_TAPCELL_ROW_0_1219
*7381 TAP_TAPCELL_ROW_0_1220
*7382 TAP_TAPCELL_ROW_0_1221
*7383 TAP_TAPCELL_ROW_0_1222
*7384 TAP_TAPCELL_ROW_0_1223
*7385 TAP_TAPCELL_ROW_0_1224
*7386 TAP_TAPCELL_ROW_0_1225
*7387 TAP_TAPCELL_ROW_0_1226
*7388 TAP_TAPCELL_ROW_0_1227
*7389 TAP_TAPCELL_ROW_0_1228
*7390 TAP_TAPCELL_ROW_0_1229
*7391 TAP_TAPCELL_ROW_0_1230
*7392 TAP_TAPCELL_ROW_0_1231
*7393 TAP_TAPCELL_ROW_0_1232
*7394 TAP_TAPCELL_ROW_0_1233
*7395 TAP_TAPCELL_ROW_0_1234
*7396 TAP_TAPCELL_ROW_0_1235
*7397 TAP_TAPCELL_ROW_0_1236
*7398 TAP_TAPCELL_ROW_0_1237
*7399 TAP_TAPCELL_ROW_0_1238
*7400 TAP_TAPCELL_ROW_0_1239
*7401 TAP_TAPCELL_ROW_0_1240
*7402 TAP_TAPCELL_ROW_0_1241
*7403 TAP_TAPCELL_ROW_100_1_1729
*7404 TAP_TAPCELL_ROW_100_1_1730
*7405 TAP_TAPCELL_ROW_100_2_2769
*7406 TAP_TAPCELL_ROW_100_3_2770
*7407 TAP_TAPCELL_ROW_100_3_2771
*7408 TAP_TAPCELL_ROW_101_1_1731
*7409 TAP_TAPCELL_ROW_101_3_2772
*7410 TAP_TAPCELL_ROW_102_1_1732
*7411 TAP_TAPCELL_ROW_102_1_1733
*7412 TAP_TAPCELL_ROW_102_2_2773
*7413 TAP_TAPCELL_ROW_102_3_2774
*7414 TAP_TAPCELL_ROW_102_3_2775
*7415 TAP_TAPCELL_ROW_103_1_1734
*7416 TAP_TAPCELL_ROW_103_3_2776
*7417 TAP_TAPCELL_ROW_104_1_1735
*7418 TAP_TAPCELL_ROW_104_1_1736
*7419 TAP_TAPCELL_ROW_104_2_2777
*7420 TAP_TAPCELL_ROW_104_3_2778
*7421 TAP_TAPCELL_ROW_104_3_2779
*7422 TAP_TAPCELL_ROW_105_1_1737
*7423 TAP_TAPCELL_ROW_105_3_2780
*7424 TAP_TAPCELL_ROW_106_1739
*7425 TAP_TAPCELL_ROW_106_1740
*7426 TAP_TAPCELL_ROW_106_1741
*7427 TAP_TAPCELL_ROW_106_1742
*7428 TAP_TAPCELL_ROW_106_1743
*7429 TAP_TAPCELL_ROW_106_1744
*7430 TAP_TAPCELL_ROW_106_1745
*7431 TAP_TAPCELL_ROW_106_1746
*7432 TAP_TAPCELL_ROW_106_1747
*7433 TAP_TAPCELL_ROW_106_1748
*7434 TAP_TAPCELL_ROW_106_1749
*7435 TAP_TAPCELL_ROW_106_1750
*7436 TAP_TAPCELL_ROW_106_1751
*7437 TAP_TAPCELL_ROW_106_1752
*7438 TAP_TAPCELL_ROW_106_1753
*7439 TAP_TAPCELL_ROW_106_1754
*7440 TAP_TAPCELL_ROW_106_1755
*7441 TAP_TAPCELL_ROW_106_1756
*7442 TAP_TAPCELL_ROW_106_1757
*7443 TAP_TAPCELL_ROW_106_1758
*7444 TAP_TAPCELL_ROW_106_1759
*7445 TAP_TAPCELL_ROW_106_1760
*7446 TAP_TAPCELL_ROW_106_1761
*7447 TAP_TAPCELL_ROW_106_1762
*7448 TAP_TAPCELL_ROW_106_1763
*7449 TAP_TAPCELL_ROW_106_1764
*7450 TAP_TAPCELL_ROW_106_1765
*7451 TAP_TAPCELL_ROW_106_1766
*7452 TAP_TAPCELL_ROW_106_1767
*7453 TAP_TAPCELL_ROW_106_1768
*7454 TAP_TAPCELL_ROW_106_1769
*7455 TAP_TAPCELL_ROW_106_1770
*7456 TAP_TAPCELL_ROW_106_1771
*7457 TAP_TAPCELL_ROW_106_1772
*7458 TAP_TAPCELL_ROW_106_1773
*7459 TAP_TAPCELL_ROW_106_1774
*7460 TAP_TAPCELL_ROW_106_1775
*7461 TAP_TAPCELL_ROW_106_1776
*7462 TAP_TAPCELL_ROW_106_1777
*7463 TAP_TAPCELL_ROW_106_1778
*7464 TAP_TAPCELL_ROW_106_1779
*7465 TAP_TAPCELL_ROW_106_1780
*7466 TAP_TAPCELL_ROW_106_1781
*7467 TAP_TAPCELL_ROW_106_1782
*7468 TAP_TAPCELL_ROW_106_1783
*7469 TAP_TAPCELL_ROW_106_1784
*7470 TAP_TAPCELL_ROW_106_1785
*7471 TAP_TAPCELL_ROW_106_1786
*7472 TAP_TAPCELL_ROW_106_1787
*7473 TAP_TAPCELL_ROW_106_1788
*7474 TAP_TAPCELL_ROW_106_1789
*7475 TAP_TAPCELL_ROW_106_1790
*7476 TAP_TAPCELL_ROW_106_1791
*7477 TAP_TAPCELL_ROW_106_1792
*7478 TAP_TAPCELL_ROW_106_1793
*7479 TAP_TAPCELL_ROW_106_1794
*7480 TAP_TAPCELL_ROW_107_1795
*7481 TAP_TAPCELL_ROW_107_1796
*7482 TAP_TAPCELL_ROW_107_1797
*7483 TAP_TAPCELL_ROW_107_1798
*7484 TAP_TAPCELL_ROW_107_1799
*7485 TAP_TAPCELL_ROW_107_1800
*7486 TAP_TAPCELL_ROW_107_1801
*7487 TAP_TAPCELL_ROW_107_1802
*7488 TAP_TAPCELL_ROW_107_1803
*7489 TAP_TAPCELL_ROW_107_1804
*7490 TAP_TAPCELL_ROW_107_1805
*7491 TAP_TAPCELL_ROW_107_1806
*7492 TAP_TAPCELL_ROW_107_1807
*7493 TAP_TAPCELL_ROW_107_1808
*7494 TAP_TAPCELL_ROW_107_1809
*7495 TAP_TAPCELL_ROW_107_1810
*7496 TAP_TAPCELL_ROW_107_1811
*7497 TAP_TAPCELL_ROW_107_1812
*7498 TAP_TAPCELL_ROW_107_1813
*7499 TAP_TAPCELL_ROW_107_1814
*7500 TAP_TAPCELL_ROW_107_1815
*7501 TAP_TAPCELL_ROW_107_1816
*7502 TAP_TAPCELL_ROW_107_1817
*7503 TAP_TAPCELL_ROW_107_1818
*7504 TAP_TAPCELL_ROW_107_1819
*7505 TAP_TAPCELL_ROW_107_1820
*7506 TAP_TAPCELL_ROW_107_1821
*7507 TAP_TAPCELL_ROW_108_1822
*7508 TAP_TAPCELL_ROW_108_1823
*7509 TAP_TAPCELL_ROW_108_1824
*7510 TAP_TAPCELL_ROW_108_1825
*7511 TAP_TAPCELL_ROW_108_1826
*7512 TAP_TAPCELL_ROW_108_1827
*7513 TAP_TAPCELL_ROW_108_1828
*7514 TAP_TAPCELL_ROW_108_1829
*7515 TAP_TAPCELL_ROW_108_1830
*7516 TAP_TAPCELL_ROW_108_1831
*7517 TAP_TAPCELL_ROW_108_1832
*7518 TAP_TAPCELL_ROW_108_1833
*7519 TAP_TAPCELL_ROW_108_1834
*7520 TAP_TAPCELL_ROW_108_1835
*7521 TAP_TAPCELL_ROW_108_1836
*7522 TAP_TAPCELL_ROW_108_1837
*7523 TAP_TAPCELL_ROW_108_1838
*7524 TAP_TAPCELL_ROW_108_1839
*7525 TAP_TAPCELL_ROW_108_1840
*7526 TAP_TAPCELL_ROW_108_1841
*7527 TAP_TAPCELL_ROW_108_1842
*7528 TAP_TAPCELL_ROW_108_1843
*7529 TAP_TAPCELL_ROW_108_1844
*7530 TAP_TAPCELL_ROW_108_1845
*7531 TAP_TAPCELL_ROW_108_1846
*7532 TAP_TAPCELL_ROW_108_1847
*7533 TAP_TAPCELL_ROW_108_1848
*7534 TAP_TAPCELL_ROW_108_1849
*7535 TAP_TAPCELL_ROW_109_1850
*7536 TAP_TAPCELL_ROW_109_1851
*7537 TAP_TAPCELL_ROW_109_1852
*7538 TAP_TAPCELL_ROW_109_1853
*7539 TAP_TAPCELL_ROW_109_1854
*7540 TAP_TAPCELL_ROW_109_1855
*7541 TAP_TAPCELL_ROW_109_1856
*7542 TAP_TAPCELL_ROW_109_1857
*7543 TAP_TAPCELL_ROW_109_1858
*7544 TAP_TAPCELL_ROW_109_1859
*7545 TAP_TAPCELL_ROW_109_1860
*7546 TAP_TAPCELL_ROW_109_1861
*7547 TAP_TAPCELL_ROW_109_1862
*7548 TAP_TAPCELL_ROW_109_1863
*7549 TAP_TAPCELL_ROW_109_1864
*7550 TAP_TAPCELL_ROW_109_1865
*7551 TAP_TAPCELL_ROW_109_1866
*7552 TAP_TAPCELL_ROW_109_1867
*7553 TAP_TAPCELL_ROW_109_1868
*7554 TAP_TAPCELL_ROW_109_1869
*7555 TAP_TAPCELL_ROW_109_1870
*7556 TAP_TAPCELL_ROW_109_1871
*7557 TAP_TAPCELL_ROW_109_1872
*7558 TAP_TAPCELL_ROW_109_1873
*7559 TAP_TAPCELL_ROW_109_1874
*7560 TAP_TAPCELL_ROW_109_1875
*7561 TAP_TAPCELL_ROW_109_1876
*7562 TAP_TAPCELL_ROW_10_1489
*7563 TAP_TAPCELL_ROW_10_1490
*7564 TAP_TAPCELL_ROW_10_1491
*7565 TAP_TAPCELL_ROW_10_1492
*7566 TAP_TAPCELL_ROW_10_1493
*7567 TAP_TAPCELL_ROW_10_1494
*7568 TAP_TAPCELL_ROW_10_1495
*7569 TAP_TAPCELL_ROW_10_1496
*7570 TAP_TAPCELL_ROW_10_1497
*7571 TAP_TAPCELL_ROW_10_1498
*7572 TAP_TAPCELL_ROW_10_1499
*7573 TAP_TAPCELL_ROW_10_1500
*7574 TAP_TAPCELL_ROW_10_1501
*7575 TAP_TAPCELL_ROW_10_1502
*7576 TAP_TAPCELL_ROW_10_1503
*7577 TAP_TAPCELL_ROW_10_1504
*7578 TAP_TAPCELL_ROW_10_1505
*7579 TAP_TAPCELL_ROW_10_1506
*7580 TAP_TAPCELL_ROW_10_1507
*7581 TAP_TAPCELL_ROW_10_1508
*7582 TAP_TAPCELL_ROW_10_1509
*7583 TAP_TAPCELL_ROW_10_1510
*7584 TAP_TAPCELL_ROW_10_1511
*7585 TAP_TAPCELL_ROW_10_1512
*7586 TAP_TAPCELL_ROW_10_1513
*7587 TAP_TAPCELL_ROW_10_1514
*7588 TAP_TAPCELL_ROW_10_1515
*7589 TAP_TAPCELL_ROW_10_1516
*7590 TAP_TAPCELL_ROW_110_1877
*7591 TAP_TAPCELL_ROW_110_1878
*7592 TAP_TAPCELL_ROW_110_1879
*7593 TAP_TAPCELL_ROW_110_1880
*7594 TAP_TAPCELL_ROW_110_1881
*7595 TAP_TAPCELL_ROW_110_1882
*7596 TAP_TAPCELL_ROW_110_1883
*7597 TAP_TAPCELL_ROW_110_1884
*7598 TAP_TAPCELL_ROW_110_1885
*7599 TAP_TAPCELL_ROW_110_1886
*7600 TAP_TAPCELL_ROW_110_1887
*7601 TAP_TAPCELL_ROW_110_1888
*7602 TAP_TAPCELL_ROW_110_1889
*7603 TAP_TAPCELL_ROW_110_1890
*7604 TAP_TAPCELL_ROW_110_1891
*7605 TAP_TAPCELL_ROW_110_1892
*7606 TAP_TAPCELL_ROW_110_1893
*7607 TAP_TAPCELL_ROW_110_1894
*7608 TAP_TAPCELL_ROW_110_1895
*7609 TAP_TAPCELL_ROW_110_1896
*7610 TAP_TAPCELL_ROW_110_1897
*7611 TAP_TAPCELL_ROW_110_1898
*7612 TAP_TAPCELL_ROW_110_1899
*7613 TAP_TAPCELL_ROW_110_1900
*7614 TAP_TAPCELL_ROW_110_1901
*7615 TAP_TAPCELL_ROW_110_1902
*7616 TAP_TAPCELL_ROW_110_1903
*7617 TAP_TAPCELL_ROW_110_1904
*7618 TAP_TAPCELL_ROW_111_1905
*7619 TAP_TAPCELL_ROW_111_1906
*7620 TAP_TAPCELL_ROW_111_1907
*7621 TAP_TAPCELL_ROW_111_1908
*7622 TAP_TAPCELL_ROW_111_1909
*7623 TAP_TAPCELL_ROW_111_1910
*7624 TAP_TAPCELL_ROW_111_1911
*7625 TAP_TAPCELL_ROW_111_1912
*7626 TAP_TAPCELL_ROW_111_1913
*7627 TAP_TAPCELL_ROW_111_1914
*7628 TAP_TAPCELL_ROW_111_1915
*7629 TAP_TAPCELL_ROW_111_1916
*7630 TAP_TAPCELL_ROW_111_1917
*7631 TAP_TAPCELL_ROW_111_1918
*7632 TAP_TAPCELL_ROW_111_1919
*7633 TAP_TAPCELL_ROW_111_1920
*7634 TAP_TAPCELL_ROW_111_1921
*7635 TAP_TAPCELL_ROW_111_1922
*7636 TAP_TAPCELL_ROW_111_1923
*7637 TAP_TAPCELL_ROW_111_1924
*7638 TAP_TAPCELL_ROW_111_1925
*7639 TAP_TAPCELL_ROW_111_1926
*7640 TAP_TAPCELL_ROW_111_1927
*7641 TAP_TAPCELL_ROW_111_1928
*7642 TAP_TAPCELL_ROW_111_1929
*7643 TAP_TAPCELL_ROW_111_1930
*7644 TAP_TAPCELL_ROW_111_1931
*7645 TAP_TAPCELL_ROW_112_1932
*7646 TAP_TAPCELL_ROW_112_1933
*7647 TAP_TAPCELL_ROW_112_1934
*7648 TAP_TAPCELL_ROW_112_1935
*7649 TAP_TAPCELL_ROW_112_1936
*7650 TAP_TAPCELL_ROW_112_1937
*7651 TAP_TAPCELL_ROW_112_1938
*7652 TAP_TAPCELL_ROW_112_1939
*7653 TAP_TAPCELL_ROW_112_1940
*7654 TAP_TAPCELL_ROW_112_1941
*7655 TAP_TAPCELL_ROW_112_1942
*7656 TAP_TAPCELL_ROW_112_1943
*7657 TAP_TAPCELL_ROW_112_1944
*7658 TAP_TAPCELL_ROW_112_1945
*7659 TAP_TAPCELL_ROW_112_1946
*7660 TAP_TAPCELL_ROW_112_1947
*7661 TAP_TAPCELL_ROW_112_1948
*7662 TAP_TAPCELL_ROW_112_1949
*7663 TAP_TAPCELL_ROW_112_1950
*7664 TAP_TAPCELL_ROW_112_1951
*7665 TAP_TAPCELL_ROW_112_1952
*7666 TAP_TAPCELL_ROW_112_1953
*7667 TAP_TAPCELL_ROW_112_1954
*7668 TAP_TAPCELL_ROW_112_1955
*7669 TAP_TAPCELL_ROW_112_1956
*7670 TAP_TAPCELL_ROW_112_1957
*7671 TAP_TAPCELL_ROW_112_1958
*7672 TAP_TAPCELL_ROW_112_1959
*7673 TAP_TAPCELL_ROW_113_1960
*7674 TAP_TAPCELL_ROW_113_1961
*7675 TAP_TAPCELL_ROW_113_1962
*7676 TAP_TAPCELL_ROW_113_1963
*7677 TAP_TAPCELL_ROW_113_1964
*7678 TAP_TAPCELL_ROW_113_1965
*7679 TAP_TAPCELL_ROW_113_1966
*7680 TAP_TAPCELL_ROW_113_1967
*7681 TAP_TAPCELL_ROW_113_1968
*7682 TAP_TAPCELL_ROW_113_1969
*7683 TAP_TAPCELL_ROW_113_1970
*7684 TAP_TAPCELL_ROW_113_1971
*7685 TAP_TAPCELL_ROW_113_1972
*7686 TAP_TAPCELL_ROW_113_1973
*7687 TAP_TAPCELL_ROW_113_1974
*7688 TAP_TAPCELL_ROW_113_1975
*7689 TAP_TAPCELL_ROW_113_1976
*7690 TAP_TAPCELL_ROW_113_1977
*7691 TAP_TAPCELL_ROW_113_1978
*7692 TAP_TAPCELL_ROW_113_1979
*7693 TAP_TAPCELL_ROW_113_1980
*7694 TAP_TAPCELL_ROW_113_1981
*7695 TAP_TAPCELL_ROW_113_1982
*7696 TAP_TAPCELL_ROW_113_1983
*7697 TAP_TAPCELL_ROW_113_1984
*7698 TAP_TAPCELL_ROW_113_1985
*7699 TAP_TAPCELL_ROW_113_1986
*7700 TAP_TAPCELL_ROW_114_1987
*7701 TAP_TAPCELL_ROW_114_1988
*7702 TAP_TAPCELL_ROW_114_1989
*7703 TAP_TAPCELL_ROW_114_1990
*7704 TAP_TAPCELL_ROW_114_1991
*7705 TAP_TAPCELL_ROW_114_1992
*7706 TAP_TAPCELL_ROW_114_1993
*7707 TAP_TAPCELL_ROW_114_1994
*7708 TAP_TAPCELL_ROW_114_1995
*7709 TAP_TAPCELL_ROW_114_1996
*7710 TAP_TAPCELL_ROW_114_1997
*7711 TAP_TAPCELL_ROW_114_1998
*7712 TAP_TAPCELL_ROW_114_1999
*7713 TAP_TAPCELL_ROW_114_2000
*7714 TAP_TAPCELL_ROW_114_2001
*7715 TAP_TAPCELL_ROW_114_2002
*7716 TAP_TAPCELL_ROW_114_2003
*7717 TAP_TAPCELL_ROW_114_2004
*7718 TAP_TAPCELL_ROW_114_2005
*7719 TAP_TAPCELL_ROW_114_2006
*7720 TAP_TAPCELL_ROW_114_2007
*7721 TAP_TAPCELL_ROW_114_2008
*7722 TAP_TAPCELL_ROW_114_2009
*7723 TAP_TAPCELL_ROW_114_2010
*7724 TAP_TAPCELL_ROW_114_2011
*7725 TAP_TAPCELL_ROW_114_2012
*7726 TAP_TAPCELL_ROW_114_2013
*7727 TAP_TAPCELL_ROW_114_2014
*7728 TAP_TAPCELL_ROW_114_2015
*7729 TAP_TAPCELL_ROW_114_2016
*7730 TAP_TAPCELL_ROW_114_2017
*7731 TAP_TAPCELL_ROW_114_2018
*7732 TAP_TAPCELL_ROW_114_2019
*7733 TAP_TAPCELL_ROW_114_2020
*7734 TAP_TAPCELL_ROW_114_2021
*7735 TAP_TAPCELL_ROW_114_2022
*7736 TAP_TAPCELL_ROW_114_2023
*7737 TAP_TAPCELL_ROW_114_2024
*7738 TAP_TAPCELL_ROW_114_2025
*7739 TAP_TAPCELL_ROW_114_2026
*7740 TAP_TAPCELL_ROW_114_2027
*7741 TAP_TAPCELL_ROW_114_2028
*7742 TAP_TAPCELL_ROW_114_2029
*7743 TAP_TAPCELL_ROW_114_2030
*7744 TAP_TAPCELL_ROW_114_2031
*7745 TAP_TAPCELL_ROW_114_2032
*7746 TAP_TAPCELL_ROW_114_2033
*7747 TAP_TAPCELL_ROW_114_2034
*7748 TAP_TAPCELL_ROW_114_2035
*7749 TAP_TAPCELL_ROW_114_2036
*7750 TAP_TAPCELL_ROW_114_2037
*7751 TAP_TAPCELL_ROW_114_2038
*7752 TAP_TAPCELL_ROW_114_2039
*7753 TAP_TAPCELL_ROW_114_2040
*7754 TAP_TAPCELL_ROW_114_2041
*7755 TAP_TAPCELL_ROW_114_2042
*7756 TAP_TAPCELL_ROW_115_1_1738
*7757 TAP_TAPCELL_ROW_115_3_2781
*7758 TAP_TAPCELL_ROW_116_1_2043
*7759 TAP_TAPCELL_ROW_116_1_2044
*7760 TAP_TAPCELL_ROW_116_2_2782
*7761 TAP_TAPCELL_ROW_116_3_2783
*7762 TAP_TAPCELL_ROW_116_3_2784
*7763 TAP_TAPCELL_ROW_117_1_2045
*7764 TAP_TAPCELL_ROW_117_3_2785
*7765 TAP_TAPCELL_ROW_118_1_2046
*7766 TAP_TAPCELL_ROW_118_1_2047
*7767 TAP_TAPCELL_ROW_118_2_2786
*7768 TAP_TAPCELL_ROW_118_3_2787
*7769 TAP_TAPCELL_ROW_118_3_2788
*7770 TAP_TAPCELL_ROW_119_1_2048
*7771 TAP_TAPCELL_ROW_119_3_2789
*7772 TAP_TAPCELL_ROW_11_1517
*7773 TAP_TAPCELL_ROW_11_1518
*7774 TAP_TAPCELL_ROW_11_1519
*7775 TAP_TAPCELL_ROW_11_1520
*7776 TAP_TAPCELL_ROW_11_1521
*7777 TAP_TAPCELL_ROW_11_1522
*7778 TAP_TAPCELL_ROW_11_1523
*7779 TAP_TAPCELL_ROW_11_1524
*7780 TAP_TAPCELL_ROW_11_1525
*7781 TAP_TAPCELL_ROW_11_1526
*7782 TAP_TAPCELL_ROW_11_1527
*7783 TAP_TAPCELL_ROW_11_1528
*7784 TAP_TAPCELL_ROW_11_1529
*7785 TAP_TAPCELL_ROW_11_1530
*7786 TAP_TAPCELL_ROW_11_1531
*7787 TAP_TAPCELL_ROW_11_1532
*7788 TAP_TAPCELL_ROW_11_1533
*7789 TAP_TAPCELL_ROW_11_1534
*7790 TAP_TAPCELL_ROW_11_1535
*7791 TAP_TAPCELL_ROW_11_1536
*7792 TAP_TAPCELL_ROW_11_1537
*7793 TAP_TAPCELL_ROW_11_1538
*7794 TAP_TAPCELL_ROW_11_1539
*7795 TAP_TAPCELL_ROW_11_1540
*7796 TAP_TAPCELL_ROW_11_1541
*7797 TAP_TAPCELL_ROW_11_1542
*7798 TAP_TAPCELL_ROW_11_1543
*7799 TAP_TAPCELL_ROW_120_1_2049
*7800 TAP_TAPCELL_ROW_120_1_2050
*7801 TAP_TAPCELL_ROW_120_2_2790
*7802 TAP_TAPCELL_ROW_120_3_2791
*7803 TAP_TAPCELL_ROW_120_3_2792
*7804 TAP_TAPCELL_ROW_121_1_2051
*7805 TAP_TAPCELL_ROW_121_3_2793
*7806 TAP_TAPCELL_ROW_122_1_2052
*7807 TAP_TAPCELL_ROW_122_1_2053
*7808 TAP_TAPCELL_ROW_122_2_2794
*7809 TAP_TAPCELL_ROW_122_3_2795
*7810 TAP_TAPCELL_ROW_122_3_2796
*7811 TAP_TAPCELL_ROW_123_1_2054
*7812 TAP_TAPCELL_ROW_123_3_2797
*7813 TAP_TAPCELL_ROW_124_1_2055
*7814 TAP_TAPCELL_ROW_124_1_2056
*7815 TAP_TAPCELL_ROW_124_2_2798
*7816 TAP_TAPCELL_ROW_124_3_2799
*7817 TAP_TAPCELL_ROW_124_3_2800
*7818 TAP_TAPCELL_ROW_125_1_2057
*7819 TAP_TAPCELL_ROW_125_3_2801
*7820 TAP_TAPCELL_ROW_126_1_2058
*7821 TAP_TAPCELL_ROW_126_1_2059
*7822 TAP_TAPCELL_ROW_126_2_2802
*7823 TAP_TAPCELL_ROW_126_3_2803
*7824 TAP_TAPCELL_ROW_126_3_2804
*7825 TAP_TAPCELL_ROW_127_1_2060
*7826 TAP_TAPCELL_ROW_127_3_2805
*7827 TAP_TAPCELL_ROW_128_1_2061
*7828 TAP_TAPCELL_ROW_128_1_2062
*7829 TAP_TAPCELL_ROW_128_2_2806
*7830 TAP_TAPCELL_ROW_128_3_2807
*7831 TAP_TAPCELL_ROW_128_3_2808
*7832 TAP_TAPCELL_ROW_129_1_2063
*7833 TAP_TAPCELL_ROW_129_3_2809
*7834 TAP_TAPCELL_ROW_12_1544
*7835 TAP_TAPCELL_ROW_12_1545
*7836 TAP_TAPCELL_ROW_12_1546
*7837 TAP_TAPCELL_ROW_12_1547
*7838 TAP_TAPCELL_ROW_12_1548
*7839 TAP_TAPCELL_ROW_12_1549
*7840 TAP_TAPCELL_ROW_12_1550
*7841 TAP_TAPCELL_ROW_12_1551
*7842 TAP_TAPCELL_ROW_12_1552
*7843 TAP_TAPCELL_ROW_12_1553
*7844 TAP_TAPCELL_ROW_12_1554
*7845 TAP_TAPCELL_ROW_12_1555
*7846 TAP_TAPCELL_ROW_12_1556
*7847 TAP_TAPCELL_ROW_12_1557
*7848 TAP_TAPCELL_ROW_12_1558
*7849 TAP_TAPCELL_ROW_12_1559
*7850 TAP_TAPCELL_ROW_12_1560
*7851 TAP_TAPCELL_ROW_12_1561
*7852 TAP_TAPCELL_ROW_12_1562
*7853 TAP_TAPCELL_ROW_12_1563
*7854 TAP_TAPCELL_ROW_12_1564
*7855 TAP_TAPCELL_ROW_12_1565
*7856 TAP_TAPCELL_ROW_12_1566
*7857 TAP_TAPCELL_ROW_12_1567
*7858 TAP_TAPCELL_ROW_12_1568
*7859 TAP_TAPCELL_ROW_12_1569
*7860 TAP_TAPCELL_ROW_12_1570
*7861 TAP_TAPCELL_ROW_12_1571
*7862 TAP_TAPCELL_ROW_12_1572
*7863 TAP_TAPCELL_ROW_12_1573
*7864 TAP_TAPCELL_ROW_12_1574
*7865 TAP_TAPCELL_ROW_12_1575
*7866 TAP_TAPCELL_ROW_12_1576
*7867 TAP_TAPCELL_ROW_12_1577
*7868 TAP_TAPCELL_ROW_12_1578
*7869 TAP_TAPCELL_ROW_12_1579
*7870 TAP_TAPCELL_ROW_12_1580
*7871 TAP_TAPCELL_ROW_12_1581
*7872 TAP_TAPCELL_ROW_12_1582
*7873 TAP_TAPCELL_ROW_12_1583
*7874 TAP_TAPCELL_ROW_12_1584
*7875 TAP_TAPCELL_ROW_12_1585
*7876 TAP_TAPCELL_ROW_12_1586
*7877 TAP_TAPCELL_ROW_12_1587
*7878 TAP_TAPCELL_ROW_12_1588
*7879 TAP_TAPCELL_ROW_12_1589
*7880 TAP_TAPCELL_ROW_12_1590
*7881 TAP_TAPCELL_ROW_12_1591
*7882 TAP_TAPCELL_ROW_12_1592
*7883 TAP_TAPCELL_ROW_12_1593
*7884 TAP_TAPCELL_ROW_12_1594
*7885 TAP_TAPCELL_ROW_12_1595
*7886 TAP_TAPCELL_ROW_12_1596
*7887 TAP_TAPCELL_ROW_12_1597
*7888 TAP_TAPCELL_ROW_12_1598
*7889 TAP_TAPCELL_ROW_12_1599
*7890 TAP_TAPCELL_ROW_130_1_2064
*7891 TAP_TAPCELL_ROW_130_1_2065
*7892 TAP_TAPCELL_ROW_130_2_2810
*7893 TAP_TAPCELL_ROW_130_3_2811
*7894 TAP_TAPCELL_ROW_130_3_2812
*7895 TAP_TAPCELL_ROW_131_1_2066
*7896 TAP_TAPCELL_ROW_131_3_2813
*7897 TAP_TAPCELL_ROW_132_1_2067
*7898 TAP_TAPCELL_ROW_132_1_2068
*7899 TAP_TAPCELL_ROW_132_2_2814
*7900 TAP_TAPCELL_ROW_132_3_2815
*7901 TAP_TAPCELL_ROW_132_3_2816
*7902 TAP_TAPCELL_ROW_133_1_2069
*7903 TAP_TAPCELL_ROW_133_3_2817
*7904 TAP_TAPCELL_ROW_134_1_2070
*7905 TAP_TAPCELL_ROW_134_1_2071
*7906 TAP_TAPCELL_ROW_134_2_2818
*7907 TAP_TAPCELL_ROW_134_3_2819
*7908 TAP_TAPCELL_ROW_134_3_2820
*7909 TAP_TAPCELL_ROW_135_1_2072
*7910 TAP_TAPCELL_ROW_135_3_2821
*7911 TAP_TAPCELL_ROW_136_1_2073
*7912 TAP_TAPCELL_ROW_136_1_2074
*7913 TAP_TAPCELL_ROW_136_2_2822
*7914 TAP_TAPCELL_ROW_136_3_2823
*7915 TAP_TAPCELL_ROW_136_3_2824
*7916 TAP_TAPCELL_ROW_137_1_2075
*7917 TAP_TAPCELL_ROW_137_3_2825
*7918 TAP_TAPCELL_ROW_138_1_2076
*7919 TAP_TAPCELL_ROW_138_1_2077
*7920 TAP_TAPCELL_ROW_138_2_2826
*7921 TAP_TAPCELL_ROW_138_3_2827
*7922 TAP_TAPCELL_ROW_138_3_2828
*7923 TAP_TAPCELL_ROW_139_1_2078
*7924 TAP_TAPCELL_ROW_139_3_2829
*7925 TAP_TAPCELL_ROW_13_1_2595
*7926 TAP_TAPCELL_ROW_13_3_2596
*7927 TAP_TAPCELL_ROW_140_1_2079
*7928 TAP_TAPCELL_ROW_140_1_2080
*7929 TAP_TAPCELL_ROW_140_2_2830
*7930 TAP_TAPCELL_ROW_140_3_2831
*7931 TAP_TAPCELL_ROW_140_3_2832
*7932 TAP_TAPCELL_ROW_141_1_2081
*7933 TAP_TAPCELL_ROW_141_3_2833
*7934 TAP_TAPCELL_ROW_142_1_2082
*7935 TAP_TAPCELL_ROW_142_1_2083
*7936 TAP_TAPCELL_ROW_142_2_2834
*7937 TAP_TAPCELL_ROW_142_3_2835
*7938 TAP_TAPCELL_ROW_142_3_2836
*7939 TAP_TAPCELL_ROW_143_1_2084
*7940 TAP_TAPCELL_ROW_143_3_2837
*7941 TAP_TAPCELL_ROW_144_1_2085
*7942 TAP_TAPCELL_ROW_144_1_2086
*7943 TAP_TAPCELL_ROW_144_2_2838
*7944 TAP_TAPCELL_ROW_144_3_2839
*7945 TAP_TAPCELL_ROW_144_3_2840
*7946 TAP_TAPCELL_ROW_145_1_2087
*7947 TAP_TAPCELL_ROW_145_3_2841
*7948 TAP_TAPCELL_ROW_146_1_2088
*7949 TAP_TAPCELL_ROW_146_1_2089
*7950 TAP_TAPCELL_ROW_146_2_2842
*7951 TAP_TAPCELL_ROW_146_3_2843
*7952 TAP_TAPCELL_ROW_146_3_2844
*7953 TAP_TAPCELL_ROW_147_1_2090
*7954 TAP_TAPCELL_ROW_147_3_2845
*7955 TAP_TAPCELL_ROW_148_1_2091
*7956 TAP_TAPCELL_ROW_148_1_2092
*7957 TAP_TAPCELL_ROW_148_2_2846
*7958 TAP_TAPCELL_ROW_148_3_2847
*7959 TAP_TAPCELL_ROW_148_3_2848
*7960 TAP_TAPCELL_ROW_149_1_2093
*7961 TAP_TAPCELL_ROW_149_3_2849
*7962 TAP_TAPCELL_ROW_14_1_1600
*7963 TAP_TAPCELL_ROW_14_1_1601
*7964 TAP_TAPCELL_ROW_14_2_2597
*7965 TAP_TAPCELL_ROW_14_3_2598
*7966 TAP_TAPCELL_ROW_14_3_2599
*7967 TAP_TAPCELL_ROW_150_1_2094
*7968 TAP_TAPCELL_ROW_150_1_2095
*7969 TAP_TAPCELL_ROW_150_2_2850
*7970 TAP_TAPCELL_ROW_150_3_2851
*7971 TAP_TAPCELL_ROW_150_3_2852
*7972 TAP_TAPCELL_ROW_151_1_2096
*7973 TAP_TAPCELL_ROW_151_3_2853
*7974 TAP_TAPCELL_ROW_152_1_2097
*7975 TAP_TAPCELL_ROW_152_1_2098
*7976 TAP_TAPCELL_ROW_152_2_2854
*7977 TAP_TAPCELL_ROW_152_3_2855
*7978 TAP_TAPCELL_ROW_152_3_2856
*7979 TAP_TAPCELL_ROW_153_1_2099
*7980 TAP_TAPCELL_ROW_153_3_2857
*7981 TAP_TAPCELL_ROW_154_1_2100
*7982 TAP_TAPCELL_ROW_154_1_2101
*7983 TAP_TAPCELL_ROW_154_2_2858
*7984 TAP_TAPCELL_ROW_154_3_2859
*7985 TAP_TAPCELL_ROW_154_3_2860
*7986 TAP_TAPCELL_ROW_155_1_2102
*7987 TAP_TAPCELL_ROW_155_3_2861
*7988 TAP_TAPCELL_ROW_156_1_2103
*7989 TAP_TAPCELL_ROW_156_1_2104
*7990 TAP_TAPCELL_ROW_156_2_2862
*7991 TAP_TAPCELL_ROW_156_3_2863
*7992 TAP_TAPCELL_ROW_156_3_2864
*7993 TAP_TAPCELL_ROW_157_1_2105
*7994 TAP_TAPCELL_ROW_157_3_2865
*7995 TAP_TAPCELL_ROW_158_1_2106
*7996 TAP_TAPCELL_ROW_158_1_2107
*7997 TAP_TAPCELL_ROW_158_2_2866
*7998 TAP_TAPCELL_ROW_158_3_2867
*7999 TAP_TAPCELL_ROW_158_3_2868
*8000 TAP_TAPCELL_ROW_159_1_2108
*8001 TAP_TAPCELL_ROW_159_3_2869
*8002 TAP_TAPCELL_ROW_15_1_1602
*8003 TAP_TAPCELL_ROW_15_3_2600
*8004 TAP_TAPCELL_ROW_160_1_2109
*8005 TAP_TAPCELL_ROW_160_1_2110
*8006 TAP_TAPCELL_ROW_160_2_2870
*8007 TAP_TAPCELL_ROW_160_3_2871
*8008 TAP_TAPCELL_ROW_160_3_2872
*8009 TAP_TAPCELL_ROW_161_1_2111
*8010 TAP_TAPCELL_ROW_161_3_2873
*8011 TAP_TAPCELL_ROW_162_1_2112
*8012 TAP_TAPCELL_ROW_162_1_2113
*8013 TAP_TAPCELL_ROW_162_2_2874
*8014 TAP_TAPCELL_ROW_162_3_2875
*8015 TAP_TAPCELL_ROW_162_3_2876
*8016 TAP_TAPCELL_ROW_163_1_2114
*8017 TAP_TAPCELL_ROW_163_3_2877
*8018 TAP_TAPCELL_ROW_164_1_2115
*8019 TAP_TAPCELL_ROW_164_1_2116
*8020 TAP_TAPCELL_ROW_164_2_2878
*8021 TAP_TAPCELL_ROW_164_3_2879
*8022 TAP_TAPCELL_ROW_164_3_2880
*8023 TAP_TAPCELL_ROW_165_1_2117
*8024 TAP_TAPCELL_ROW_165_3_2881
*8025 TAP_TAPCELL_ROW_166_1_2118
*8026 TAP_TAPCELL_ROW_166_1_2119
*8027 TAP_TAPCELL_ROW_166_2_2882
*8028 TAP_TAPCELL_ROW_166_3_2883
*8029 TAP_TAPCELL_ROW_166_3_2884
*8030 TAP_TAPCELL_ROW_167_1_2120
*8031 TAP_TAPCELL_ROW_167_3_2885
*8032 TAP_TAPCELL_ROW_168_1_2121
*8033 TAP_TAPCELL_ROW_168_1_2122
*8034 TAP_TAPCELL_ROW_168_2_2886
*8035 TAP_TAPCELL_ROW_168_3_2887
*8036 TAP_TAPCELL_ROW_168_3_2888
*8037 TAP_TAPCELL_ROW_169_1_2123
*8038 TAP_TAPCELL_ROW_169_3_2889
*8039 TAP_TAPCELL_ROW_16_1_1603
*8040 TAP_TAPCELL_ROW_16_1_1604
*8041 TAP_TAPCELL_ROW_16_2_2601
*8042 TAP_TAPCELL_ROW_16_3_2602
*8043 TAP_TAPCELL_ROW_16_3_2603
*8044 TAP_TAPCELL_ROW_170_1_2124
*8045 TAP_TAPCELL_ROW_170_1_2125
*8046 TAP_TAPCELL_ROW_170_2_2890
*8047 TAP_TAPCELL_ROW_170_3_2891
*8048 TAP_TAPCELL_ROW_170_3_2892
*8049 TAP_TAPCELL_ROW_171_1_2126
*8050 TAP_TAPCELL_ROW_171_3_2893
*8051 TAP_TAPCELL_ROW_172_1_2127
*8052 TAP_TAPCELL_ROW_172_1_2128
*8053 TAP_TAPCELL_ROW_172_2_2894
*8054 TAP_TAPCELL_ROW_172_3_2895
*8055 TAP_TAPCELL_ROW_172_3_2896
*8056 TAP_TAPCELL_ROW_173_1_2129
*8057 TAP_TAPCELL_ROW_173_3_2897
*8058 TAP_TAPCELL_ROW_174_1_2130
*8059 TAP_TAPCELL_ROW_174_1_2131
*8060 TAP_TAPCELL_ROW_174_2_2898
*8061 TAP_TAPCELL_ROW_174_3_2899
*8062 TAP_TAPCELL_ROW_174_3_2900
*8063 TAP_TAPCELL_ROW_175_1_2132
*8064 TAP_TAPCELL_ROW_175_3_2901
*8065 TAP_TAPCELL_ROW_176_1_2133
*8066 TAP_TAPCELL_ROW_176_1_2134
*8067 TAP_TAPCELL_ROW_176_2_2902
*8068 TAP_TAPCELL_ROW_176_3_2903
*8069 TAP_TAPCELL_ROW_176_3_2904
*8070 TAP_TAPCELL_ROW_177_1_2135
*8071 TAP_TAPCELL_ROW_177_3_2905
*8072 TAP_TAPCELL_ROW_178_1_2136
*8073 TAP_TAPCELL_ROW_178_1_2137
*8074 TAP_TAPCELL_ROW_178_2_2906
*8075 TAP_TAPCELL_ROW_178_3_2907
*8076 TAP_TAPCELL_ROW_178_3_2908
*8077 TAP_TAPCELL_ROW_179_1_2138
*8078 TAP_TAPCELL_ROW_179_3_2909
*8079 TAP_TAPCELL_ROW_17_1_1605
*8080 TAP_TAPCELL_ROW_17_3_2604
*8081 TAP_TAPCELL_ROW_180_1_2139
*8082 TAP_TAPCELL_ROW_180_1_2140
*8083 TAP_TAPCELL_ROW_180_2_2910
*8084 TAP_TAPCELL_ROW_180_3_2911
*8085 TAP_TAPCELL_ROW_180_3_2912
*8086 TAP_TAPCELL_ROW_181_1_2141
*8087 TAP_TAPCELL_ROW_181_3_2913
*8088 TAP_TAPCELL_ROW_182_1_2142
*8089 TAP_TAPCELL_ROW_182_1_2143
*8090 TAP_TAPCELL_ROW_182_2_2914
*8091 TAP_TAPCELL_ROW_182_3_2915
*8092 TAP_TAPCELL_ROW_182_3_2916
*8093 TAP_TAPCELL_ROW_183_1_2144
*8094 TAP_TAPCELL_ROW_183_3_2917
*8095 TAP_TAPCELL_ROW_184_1_2145
*8096 TAP_TAPCELL_ROW_184_1_2146
*8097 TAP_TAPCELL_ROW_184_2_2918
*8098 TAP_TAPCELL_ROW_184_3_2919
*8099 TAP_TAPCELL_ROW_184_3_2920
*8100 TAP_TAPCELL_ROW_185_1_2147
*8101 TAP_TAPCELL_ROW_185_3_2921
*8102 TAP_TAPCELL_ROW_186_1_2148
*8103 TAP_TAPCELL_ROW_186_1_2149
*8104 TAP_TAPCELL_ROW_186_2_2922
*8105 TAP_TAPCELL_ROW_186_3_2923
*8106 TAP_TAPCELL_ROW_186_3_2924
*8107 TAP_TAPCELL_ROW_187_1_2150
*8108 TAP_TAPCELL_ROW_187_3_2925
*8109 TAP_TAPCELL_ROW_188_1_2151
*8110 TAP_TAPCELL_ROW_188_1_2152
*8111 TAP_TAPCELL_ROW_188_2_2926
*8112 TAP_TAPCELL_ROW_188_3_2927
*8113 TAP_TAPCELL_ROW_188_3_2928
*8114 TAP_TAPCELL_ROW_189_1_2153
*8115 TAP_TAPCELL_ROW_189_3_2929
*8116 TAP_TAPCELL_ROW_18_1_1606
*8117 TAP_TAPCELL_ROW_18_1_1607
*8118 TAP_TAPCELL_ROW_18_2_2605
*8119 TAP_TAPCELL_ROW_18_3_2606
*8120 TAP_TAPCELL_ROW_18_3_2607
*8121 TAP_TAPCELL_ROW_190_1_2154
*8122 TAP_TAPCELL_ROW_190_1_2155
*8123 TAP_TAPCELL_ROW_190_2_2930
*8124 TAP_TAPCELL_ROW_190_3_2931
*8125 TAP_TAPCELL_ROW_190_3_2932
*8126 TAP_TAPCELL_ROW_191_1_2156
*8127 TAP_TAPCELL_ROW_191_3_2933
*8128 TAP_TAPCELL_ROW_192_1_2157
*8129 TAP_TAPCELL_ROW_192_1_2158
*8130 TAP_TAPCELL_ROW_192_2_2934
*8131 TAP_TAPCELL_ROW_192_3_2935
*8132 TAP_TAPCELL_ROW_192_3_2936
*8133 TAP_TAPCELL_ROW_193_1_2159
*8134 TAP_TAPCELL_ROW_193_3_2937
*8135 TAP_TAPCELL_ROW_194_1_2160
*8136 TAP_TAPCELL_ROW_194_1_2161
*8137 TAP_TAPCELL_ROW_194_2_2938
*8138 TAP_TAPCELL_ROW_194_3_2939
*8139 TAP_TAPCELL_ROW_194_3_2940
*8140 TAP_TAPCELL_ROW_195_1_2162
*8141 TAP_TAPCELL_ROW_195_3_2941
*8142 TAP_TAPCELL_ROW_196_1_2163
*8143 TAP_TAPCELL_ROW_196_1_2164
*8144 TAP_TAPCELL_ROW_196_2_2942
*8145 TAP_TAPCELL_ROW_196_3_2943
*8146 TAP_TAPCELL_ROW_196_3_2944
*8147 TAP_TAPCELL_ROW_197_1_2165
*8148 TAP_TAPCELL_ROW_197_3_2945
*8149 TAP_TAPCELL_ROW_198_1_2166
*8150 TAP_TAPCELL_ROW_198_1_2167
*8151 TAP_TAPCELL_ROW_198_2_2946
*8152 TAP_TAPCELL_ROW_198_3_2947
*8153 TAP_TAPCELL_ROW_198_3_2948
*8154 TAP_TAPCELL_ROW_199_1_2168
*8155 TAP_TAPCELL_ROW_199_3_2949
*8156 TAP_TAPCELL_ROW_19_1_1608
*8157 TAP_TAPCELL_ROW_19_3_2608
*8158 TAP_TAPCELL_ROW_1_1242
*8159 TAP_TAPCELL_ROW_1_1243
*8160 TAP_TAPCELL_ROW_1_1244
*8161 TAP_TAPCELL_ROW_1_1245
*8162 TAP_TAPCELL_ROW_1_1246
*8163 TAP_TAPCELL_ROW_1_1247
*8164 TAP_TAPCELL_ROW_1_1248
*8165 TAP_TAPCELL_ROW_1_1249
*8166 TAP_TAPCELL_ROW_1_1250
*8167 TAP_TAPCELL_ROW_1_1251
*8168 TAP_TAPCELL_ROW_1_1252
*8169 TAP_TAPCELL_ROW_1_1253
*8170 TAP_TAPCELL_ROW_1_1254
*8171 TAP_TAPCELL_ROW_1_1255
*8172 TAP_TAPCELL_ROW_1_1256
*8173 TAP_TAPCELL_ROW_1_1257
*8174 TAP_TAPCELL_ROW_1_1258
*8175 TAP_TAPCELL_ROW_1_1259
*8176 TAP_TAPCELL_ROW_1_1260
*8177 TAP_TAPCELL_ROW_1_1261
*8178 TAP_TAPCELL_ROW_1_1262
*8179 TAP_TAPCELL_ROW_1_1263
*8180 TAP_TAPCELL_ROW_1_1264
*8181 TAP_TAPCELL_ROW_1_1265
*8182 TAP_TAPCELL_ROW_1_1266
*8183 TAP_TAPCELL_ROW_1_1267
*8184 TAP_TAPCELL_ROW_1_1268
*8185 TAP_TAPCELL_ROW_200_1_2169
*8186 TAP_TAPCELL_ROW_200_1_2170
*8187 TAP_TAPCELL_ROW_200_2_2950
*8188 TAP_TAPCELL_ROW_200_3_2951
*8189 TAP_TAPCELL_ROW_200_3_2952
*8190 TAP_TAPCELL_ROW_201_1_2171
*8191 TAP_TAPCELL_ROW_201_3_2953
*8192 TAP_TAPCELL_ROW_202_1_2172
*8193 TAP_TAPCELL_ROW_202_1_2173
*8194 TAP_TAPCELL_ROW_202_2_2954
*8195 TAP_TAPCELL_ROW_202_3_2955
*8196 TAP_TAPCELL_ROW_202_3_2956
*8197 TAP_TAPCELL_ROW_203_1_2174
*8198 TAP_TAPCELL_ROW_203_3_2957
*8199 TAP_TAPCELL_ROW_204_1_2175
*8200 TAP_TAPCELL_ROW_204_1_2176
*8201 TAP_TAPCELL_ROW_204_2_2958
*8202 TAP_TAPCELL_ROW_204_3_2959
*8203 TAP_TAPCELL_ROW_204_3_2960
*8204 TAP_TAPCELL_ROW_205_1_2177
*8205 TAP_TAPCELL_ROW_205_3_2961
*8206 TAP_TAPCELL_ROW_206_1_2178
*8207 TAP_TAPCELL_ROW_206_1_2179
*8208 TAP_TAPCELL_ROW_206_2_2962
*8209 TAP_TAPCELL_ROW_206_3_2963
*8210 TAP_TAPCELL_ROW_206_3_2964
*8211 TAP_TAPCELL_ROW_207_1_2180
*8212 TAP_TAPCELL_ROW_207_3_2965
*8213 TAP_TAPCELL_ROW_208_2181
*8214 TAP_TAPCELL_ROW_208_2182
*8215 TAP_TAPCELL_ROW_208_2183
*8216 TAP_TAPCELL_ROW_208_2184
*8217 TAP_TAPCELL_ROW_208_2185
*8218 TAP_TAPCELL_ROW_208_2186
*8219 TAP_TAPCELL_ROW_208_2187
*8220 TAP_TAPCELL_ROW_208_2188
*8221 TAP_TAPCELL_ROW_208_2189
*8222 TAP_TAPCELL_ROW_208_2190
*8223 TAP_TAPCELL_ROW_208_2191
*8224 TAP_TAPCELL_ROW_208_2192
*8225 TAP_TAPCELL_ROW_208_2193
*8226 TAP_TAPCELL_ROW_208_2194
*8227 TAP_TAPCELL_ROW_208_2195
*8228 TAP_TAPCELL_ROW_208_2196
*8229 TAP_TAPCELL_ROW_208_2197
*8230 TAP_TAPCELL_ROW_208_2198
*8231 TAP_TAPCELL_ROW_208_2199
*8232 TAP_TAPCELL_ROW_208_2200
*8233 TAP_TAPCELL_ROW_208_2201
*8234 TAP_TAPCELL_ROW_208_2202
*8235 TAP_TAPCELL_ROW_208_2203
*8236 TAP_TAPCELL_ROW_208_2204
*8237 TAP_TAPCELL_ROW_208_2205
*8238 TAP_TAPCELL_ROW_208_2206
*8239 TAP_TAPCELL_ROW_208_2207
*8240 TAP_TAPCELL_ROW_208_2208
*8241 TAP_TAPCELL_ROW_208_2209
*8242 TAP_TAPCELL_ROW_208_2210
*8243 TAP_TAPCELL_ROW_208_2211
*8244 TAP_TAPCELL_ROW_208_2212
*8245 TAP_TAPCELL_ROW_208_2213
*8246 TAP_TAPCELL_ROW_208_2214
*8247 TAP_TAPCELL_ROW_208_2215
*8248 TAP_TAPCELL_ROW_208_2216
*8249 TAP_TAPCELL_ROW_208_2217
*8250 TAP_TAPCELL_ROW_208_2218
*8251 TAP_TAPCELL_ROW_208_2219
*8252 TAP_TAPCELL_ROW_208_2220
*8253 TAP_TAPCELL_ROW_208_2221
*8254 TAP_TAPCELL_ROW_208_2222
*8255 TAP_TAPCELL_ROW_208_2223
*8256 TAP_TAPCELL_ROW_208_2224
*8257 TAP_TAPCELL_ROW_208_2225
*8258 TAP_TAPCELL_ROW_208_2226
*8259 TAP_TAPCELL_ROW_208_2227
*8260 TAP_TAPCELL_ROW_208_2228
*8261 TAP_TAPCELL_ROW_208_2229
*8262 TAP_TAPCELL_ROW_208_2230
*8263 TAP_TAPCELL_ROW_208_2231
*8264 TAP_TAPCELL_ROW_208_2232
*8265 TAP_TAPCELL_ROW_208_2233
*8266 TAP_TAPCELL_ROW_208_2234
*8267 TAP_TAPCELL_ROW_208_2235
*8268 TAP_TAPCELL_ROW_208_2236
*8269 TAP_TAPCELL_ROW_209_2237
*8270 TAP_TAPCELL_ROW_209_2238
*8271 TAP_TAPCELL_ROW_209_2239
*8272 TAP_TAPCELL_ROW_209_2240
*8273 TAP_TAPCELL_ROW_209_2241
*8274 TAP_TAPCELL_ROW_209_2242
*8275 TAP_TAPCELL_ROW_209_2243
*8276 TAP_TAPCELL_ROW_209_2244
*8277 TAP_TAPCELL_ROW_209_2245
*8278 TAP_TAPCELL_ROW_209_2246
*8279 TAP_TAPCELL_ROW_209_2247
*8280 TAP_TAPCELL_ROW_209_2248
*8281 TAP_TAPCELL_ROW_209_2249
*8282 TAP_TAPCELL_ROW_209_2250
*8283 TAP_TAPCELL_ROW_209_2251
*8284 TAP_TAPCELL_ROW_209_2252
*8285 TAP_TAPCELL_ROW_209_2253
*8286 TAP_TAPCELL_ROW_209_2254
*8287 TAP_TAPCELL_ROW_209_2255
*8288 TAP_TAPCELL_ROW_209_2256
*8289 TAP_TAPCELL_ROW_209_2257
*8290 TAP_TAPCELL_ROW_209_2258
*8291 TAP_TAPCELL_ROW_209_2259
*8292 TAP_TAPCELL_ROW_209_2260
*8293 TAP_TAPCELL_ROW_209_2261
*8294 TAP_TAPCELL_ROW_209_2262
*8295 TAP_TAPCELL_ROW_209_2263
*8296 TAP_TAPCELL_ROW_20_1_1609
*8297 TAP_TAPCELL_ROW_20_1_1610
*8298 TAP_TAPCELL_ROW_20_2_2609
*8299 TAP_TAPCELL_ROW_20_3_2610
*8300 TAP_TAPCELL_ROW_20_3_2611
*8301 TAP_TAPCELL_ROW_210_2264
*8302 TAP_TAPCELL_ROW_210_2265
*8303 TAP_TAPCELL_ROW_210_2266
*8304 TAP_TAPCELL_ROW_210_2267
*8305 TAP_TAPCELL_ROW_210_2268
*8306 TAP_TAPCELL_ROW_210_2269
*8307 TAP_TAPCELL_ROW_210_2270
*8308 TAP_TAPCELL_ROW_210_2271
*8309 TAP_TAPCELL_ROW_210_2272
*8310 TAP_TAPCELL_ROW_210_2273
*8311 TAP_TAPCELL_ROW_210_2274
*8312 TAP_TAPCELL_ROW_210_2275
*8313 TAP_TAPCELL_ROW_210_2276
*8314 TAP_TAPCELL_ROW_210_2277
*8315 TAP_TAPCELL_ROW_210_2278
*8316 TAP_TAPCELL_ROW_210_2279
*8317 TAP_TAPCELL_ROW_210_2280
*8318 TAP_TAPCELL_ROW_210_2281
*8319 TAP_TAPCELL_ROW_210_2282
*8320 TAP_TAPCELL_ROW_210_2283
*8321 TAP_TAPCELL_ROW_210_2284
*8322 TAP_TAPCELL_ROW_210_2285
*8323 TAP_TAPCELL_ROW_210_2286
*8324 TAP_TAPCELL_ROW_210_2287
*8325 TAP_TAPCELL_ROW_210_2288
*8326 TAP_TAPCELL_ROW_210_2289
*8327 TAP_TAPCELL_ROW_210_2290
*8328 TAP_TAPCELL_ROW_210_2291
*8329 TAP_TAPCELL_ROW_211_2292
*8330 TAP_TAPCELL_ROW_211_2293
*8331 TAP_TAPCELL_ROW_211_2294
*8332 TAP_TAPCELL_ROW_211_2295
*8333 TAP_TAPCELL_ROW_211_2296
*8334 TAP_TAPCELL_ROW_211_2297
*8335 TAP_TAPCELL_ROW_211_2298
*8336 TAP_TAPCELL_ROW_211_2299
*8337 TAP_TAPCELL_ROW_211_2300
*8338 TAP_TAPCELL_ROW_211_2301
*8339 TAP_TAPCELL_ROW_211_2302
*8340 TAP_TAPCELL_ROW_211_2303
*8341 TAP_TAPCELL_ROW_211_2304
*8342 TAP_TAPCELL_ROW_211_2305
*8343 TAP_TAPCELL_ROW_211_2306
*8344 TAP_TAPCELL_ROW_211_2307
*8345 TAP_TAPCELL_ROW_211_2308
*8346 TAP_TAPCELL_ROW_211_2309
*8347 TAP_TAPCELL_ROW_211_2310
*8348 TAP_TAPCELL_ROW_211_2311
*8349 TAP_TAPCELL_ROW_211_2312
*8350 TAP_TAPCELL_ROW_211_2313
*8351 TAP_TAPCELL_ROW_211_2314
*8352 TAP_TAPCELL_ROW_211_2315
*8353 TAP_TAPCELL_ROW_211_2316
*8354 TAP_TAPCELL_ROW_211_2317
*8355 TAP_TAPCELL_ROW_211_2318
*8356 TAP_TAPCELL_ROW_212_2319
*8357 TAP_TAPCELL_ROW_212_2320
*8358 TAP_TAPCELL_ROW_212_2321
*8359 TAP_TAPCELL_ROW_212_2322
*8360 TAP_TAPCELL_ROW_212_2323
*8361 TAP_TAPCELL_ROW_212_2324
*8362 TAP_TAPCELL_ROW_212_2325
*8363 TAP_TAPCELL_ROW_212_2326
*8364 TAP_TAPCELL_ROW_212_2327
*8365 TAP_TAPCELL_ROW_212_2328
*8366 TAP_TAPCELL_ROW_212_2329
*8367 TAP_TAPCELL_ROW_212_2330
*8368 TAP_TAPCELL_ROW_212_2331
*8369 TAP_TAPCELL_ROW_212_2332
*8370 TAP_TAPCELL_ROW_212_2333
*8371 TAP_TAPCELL_ROW_212_2334
*8372 TAP_TAPCELL_ROW_212_2335
*8373 TAP_TAPCELL_ROW_212_2336
*8374 TAP_TAPCELL_ROW_212_2337
*8375 TAP_TAPCELL_ROW_212_2338
*8376 TAP_TAPCELL_ROW_212_2339
*8377 TAP_TAPCELL_ROW_212_2340
*8378 TAP_TAPCELL_ROW_212_2341
*8379 TAP_TAPCELL_ROW_212_2342
*8380 TAP_TAPCELL_ROW_212_2343
*8381 TAP_TAPCELL_ROW_212_2344
*8382 TAP_TAPCELL_ROW_212_2345
*8383 TAP_TAPCELL_ROW_212_2346
*8384 TAP_TAPCELL_ROW_213_2347
*8385 TAP_TAPCELL_ROW_213_2348
*8386 TAP_TAPCELL_ROW_213_2349
*8387 TAP_TAPCELL_ROW_213_2350
*8388 TAP_TAPCELL_ROW_213_2351
*8389 TAP_TAPCELL_ROW_213_2352
*8390 TAP_TAPCELL_ROW_213_2353
*8391 TAP_TAPCELL_ROW_213_2354
*8392 TAP_TAPCELL_ROW_213_2355
*8393 TAP_TAPCELL_ROW_213_2356
*8394 TAP_TAPCELL_ROW_213_2357
*8395 TAP_TAPCELL_ROW_213_2358
*8396 TAP_TAPCELL_ROW_213_2359
*8397 TAP_TAPCELL_ROW_213_2360
*8398 TAP_TAPCELL_ROW_213_2361
*8399 TAP_TAPCELL_ROW_213_2362
*8400 TAP_TAPCELL_ROW_213_2363
*8401 TAP_TAPCELL_ROW_213_2364
*8402 TAP_TAPCELL_ROW_213_2365
*8403 TAP_TAPCELL_ROW_213_2366
*8404 TAP_TAPCELL_ROW_213_2367
*8405 TAP_TAPCELL_ROW_213_2368
*8406 TAP_TAPCELL_ROW_213_2369
*8407 TAP_TAPCELL_ROW_213_2370
*8408 TAP_TAPCELL_ROW_213_2371
*8409 TAP_TAPCELL_ROW_213_2372
*8410 TAP_TAPCELL_ROW_213_2373
*8411 TAP_TAPCELL_ROW_214_2374
*8412 TAP_TAPCELL_ROW_214_2375
*8413 TAP_TAPCELL_ROW_214_2376
*8414 TAP_TAPCELL_ROW_214_2377
*8415 TAP_TAPCELL_ROW_214_2378
*8416 TAP_TAPCELL_ROW_214_2379
*8417 TAP_TAPCELL_ROW_214_2380
*8418 TAP_TAPCELL_ROW_214_2381
*8419 TAP_TAPCELL_ROW_214_2382
*8420 TAP_TAPCELL_ROW_214_2383
*8421 TAP_TAPCELL_ROW_214_2384
*8422 TAP_TAPCELL_ROW_214_2385
*8423 TAP_TAPCELL_ROW_214_2386
*8424 TAP_TAPCELL_ROW_214_2387
*8425 TAP_TAPCELL_ROW_214_2388
*8426 TAP_TAPCELL_ROW_214_2389
*8427 TAP_TAPCELL_ROW_214_2390
*8428 TAP_TAPCELL_ROW_214_2391
*8429 TAP_TAPCELL_ROW_214_2392
*8430 TAP_TAPCELL_ROW_214_2393
*8431 TAP_TAPCELL_ROW_214_2394
*8432 TAP_TAPCELL_ROW_214_2395
*8433 TAP_TAPCELL_ROW_214_2396
*8434 TAP_TAPCELL_ROW_214_2397
*8435 TAP_TAPCELL_ROW_214_2398
*8436 TAP_TAPCELL_ROW_214_2399
*8437 TAP_TAPCELL_ROW_214_2400
*8438 TAP_TAPCELL_ROW_214_2401
*8439 TAP_TAPCELL_ROW_215_2402
*8440 TAP_TAPCELL_ROW_215_2403
*8441 TAP_TAPCELL_ROW_215_2404
*8442 TAP_TAPCELL_ROW_215_2405
*8443 TAP_TAPCELL_ROW_215_2406
*8444 TAP_TAPCELL_ROW_215_2407
*8445 TAP_TAPCELL_ROW_215_2408
*8446 TAP_TAPCELL_ROW_215_2409
*8447 TAP_TAPCELL_ROW_215_2410
*8448 TAP_TAPCELL_ROW_215_2411
*8449 TAP_TAPCELL_ROW_215_2412
*8450 TAP_TAPCELL_ROW_215_2413
*8451 TAP_TAPCELL_ROW_215_2414
*8452 TAP_TAPCELL_ROW_215_2415
*8453 TAP_TAPCELL_ROW_215_2416
*8454 TAP_TAPCELL_ROW_215_2417
*8455 TAP_TAPCELL_ROW_215_2418
*8456 TAP_TAPCELL_ROW_215_2419
*8457 TAP_TAPCELL_ROW_215_2420
*8458 TAP_TAPCELL_ROW_215_2421
*8459 TAP_TAPCELL_ROW_215_2422
*8460 TAP_TAPCELL_ROW_215_2423
*8461 TAP_TAPCELL_ROW_215_2424
*8462 TAP_TAPCELL_ROW_215_2425
*8463 TAP_TAPCELL_ROW_215_2426
*8464 TAP_TAPCELL_ROW_215_2427
*8465 TAP_TAPCELL_ROW_215_2428
*8466 TAP_TAPCELL_ROW_216_2429
*8467 TAP_TAPCELL_ROW_216_2430
*8468 TAP_TAPCELL_ROW_216_2431
*8469 TAP_TAPCELL_ROW_216_2432
*8470 TAP_TAPCELL_ROW_216_2433
*8471 TAP_TAPCELL_ROW_216_2434
*8472 TAP_TAPCELL_ROW_216_2435
*8473 TAP_TAPCELL_ROW_216_2436
*8474 TAP_TAPCELL_ROW_216_2437
*8475 TAP_TAPCELL_ROW_216_2438
*8476 TAP_TAPCELL_ROW_216_2439
*8477 TAP_TAPCELL_ROW_216_2440
*8478 TAP_TAPCELL_ROW_216_2441
*8479 TAP_TAPCELL_ROW_216_2442
*8480 TAP_TAPCELL_ROW_216_2443
*8481 TAP_TAPCELL_ROW_216_2444
*8482 TAP_TAPCELL_ROW_216_2445
*8483 TAP_TAPCELL_ROW_216_2446
*8484 TAP_TAPCELL_ROW_216_2447
*8485 TAP_TAPCELL_ROW_216_2448
*8486 TAP_TAPCELL_ROW_216_2449
*8487 TAP_TAPCELL_ROW_216_2450
*8488 TAP_TAPCELL_ROW_216_2451
*8489 TAP_TAPCELL_ROW_216_2452
*8490 TAP_TAPCELL_ROW_216_2453
*8491 TAP_TAPCELL_ROW_216_2454
*8492 TAP_TAPCELL_ROW_216_2455
*8493 TAP_TAPCELL_ROW_216_2456
*8494 TAP_TAPCELL_ROW_217_2457
*8495 TAP_TAPCELL_ROW_217_2458
*8496 TAP_TAPCELL_ROW_217_2459
*8497 TAP_TAPCELL_ROW_217_2460
*8498 TAP_TAPCELL_ROW_217_2461
*8499 TAP_TAPCELL_ROW_217_2462
*8500 TAP_TAPCELL_ROW_217_2463
*8501 TAP_TAPCELL_ROW_217_2464
*8502 TAP_TAPCELL_ROW_217_2465
*8503 TAP_TAPCELL_ROW_217_2466
*8504 TAP_TAPCELL_ROW_217_2467
*8505 TAP_TAPCELL_ROW_217_2468
*8506 TAP_TAPCELL_ROW_217_2469
*8507 TAP_TAPCELL_ROW_217_2470
*8508 TAP_TAPCELL_ROW_217_2471
*8509 TAP_TAPCELL_ROW_217_2472
*8510 TAP_TAPCELL_ROW_217_2473
*8511 TAP_TAPCELL_ROW_217_2474
*8512 TAP_TAPCELL_ROW_217_2475
*8513 TAP_TAPCELL_ROW_217_2476
*8514 TAP_TAPCELL_ROW_217_2477
*8515 TAP_TAPCELL_ROW_217_2478
*8516 TAP_TAPCELL_ROW_217_2479
*8517 TAP_TAPCELL_ROW_217_2480
*8518 TAP_TAPCELL_ROW_217_2481
*8519 TAP_TAPCELL_ROW_217_2482
*8520 TAP_TAPCELL_ROW_217_2483
*8521 TAP_TAPCELL_ROW_218_2484
*8522 TAP_TAPCELL_ROW_218_2485
*8523 TAP_TAPCELL_ROW_218_2486
*8524 TAP_TAPCELL_ROW_218_2487
*8525 TAP_TAPCELL_ROW_218_2488
*8526 TAP_TAPCELL_ROW_218_2489
*8527 TAP_TAPCELL_ROW_218_2490
*8528 TAP_TAPCELL_ROW_218_2491
*8529 TAP_TAPCELL_ROW_218_2492
*8530 TAP_TAPCELL_ROW_218_2493
*8531 TAP_TAPCELL_ROW_218_2494
*8532 TAP_TAPCELL_ROW_218_2495
*8533 TAP_TAPCELL_ROW_218_2496
*8534 TAP_TAPCELL_ROW_218_2497
*8535 TAP_TAPCELL_ROW_218_2498
*8536 TAP_TAPCELL_ROW_218_2499
*8537 TAP_TAPCELL_ROW_218_2500
*8538 TAP_TAPCELL_ROW_218_2501
*8539 TAP_TAPCELL_ROW_218_2502
*8540 TAP_TAPCELL_ROW_218_2503
*8541 TAP_TAPCELL_ROW_218_2504
*8542 TAP_TAPCELL_ROW_218_2505
*8543 TAP_TAPCELL_ROW_218_2506
*8544 TAP_TAPCELL_ROW_218_2507
*8545 TAP_TAPCELL_ROW_218_2508
*8546 TAP_TAPCELL_ROW_218_2509
*8547 TAP_TAPCELL_ROW_218_2510
*8548 TAP_TAPCELL_ROW_218_2511
*8549 TAP_TAPCELL_ROW_219_2512
*8550 TAP_TAPCELL_ROW_219_2513
*8551 TAP_TAPCELL_ROW_219_2514
*8552 TAP_TAPCELL_ROW_219_2515
*8553 TAP_TAPCELL_ROW_219_2516
*8554 TAP_TAPCELL_ROW_219_2517
*8555 TAP_TAPCELL_ROW_219_2518
*8556 TAP_TAPCELL_ROW_219_2519
*8557 TAP_TAPCELL_ROW_219_2520
*8558 TAP_TAPCELL_ROW_219_2521
*8559 TAP_TAPCELL_ROW_219_2522
*8560 TAP_TAPCELL_ROW_219_2523
*8561 TAP_TAPCELL_ROW_219_2524
*8562 TAP_TAPCELL_ROW_219_2525
*8563 TAP_TAPCELL_ROW_219_2526
*8564 TAP_TAPCELL_ROW_219_2527
*8565 TAP_TAPCELL_ROW_219_2528
*8566 TAP_TAPCELL_ROW_219_2529
*8567 TAP_TAPCELL_ROW_219_2530
*8568 TAP_TAPCELL_ROW_219_2531
*8569 TAP_TAPCELL_ROW_219_2532
*8570 TAP_TAPCELL_ROW_219_2533
*8571 TAP_TAPCELL_ROW_219_2534
*8572 TAP_TAPCELL_ROW_219_2535
*8573 TAP_TAPCELL_ROW_219_2536
*8574 TAP_TAPCELL_ROW_219_2537
*8575 TAP_TAPCELL_ROW_219_2538
*8576 TAP_TAPCELL_ROW_21_1_1611
*8577 TAP_TAPCELL_ROW_21_3_2612
*8578 TAP_TAPCELL_ROW_220_2539
*8579 TAP_TAPCELL_ROW_220_2540
*8580 TAP_TAPCELL_ROW_220_2541
*8581 TAP_TAPCELL_ROW_220_2542
*8582 TAP_TAPCELL_ROW_220_2543
*8583 TAP_TAPCELL_ROW_220_2544
*8584 TAP_TAPCELL_ROW_220_2545
*8585 TAP_TAPCELL_ROW_220_2546
*8586 TAP_TAPCELL_ROW_220_2547
*8587 TAP_TAPCELL_ROW_220_2548
*8588 TAP_TAPCELL_ROW_220_2549
*8589 TAP_TAPCELL_ROW_220_2550
*8590 TAP_TAPCELL_ROW_220_2551
*8591 TAP_TAPCELL_ROW_220_2552
*8592 TAP_TAPCELL_ROW_220_2553
*8593 TAP_TAPCELL_ROW_220_2554
*8594 TAP_TAPCELL_ROW_220_2555
*8595 TAP_TAPCELL_ROW_220_2556
*8596 TAP_TAPCELL_ROW_220_2557
*8597 TAP_TAPCELL_ROW_220_2558
*8598 TAP_TAPCELL_ROW_220_2559
*8599 TAP_TAPCELL_ROW_220_2560
*8600 TAP_TAPCELL_ROW_220_2561
*8601 TAP_TAPCELL_ROW_220_2562
*8602 TAP_TAPCELL_ROW_220_2563
*8603 TAP_TAPCELL_ROW_220_2564
*8604 TAP_TAPCELL_ROW_220_2565
*8605 TAP_TAPCELL_ROW_220_2566
*8606 TAP_TAPCELL_ROW_220_2567
*8607 TAP_TAPCELL_ROW_220_2568
*8608 TAP_TAPCELL_ROW_220_2569
*8609 TAP_TAPCELL_ROW_220_2570
*8610 TAP_TAPCELL_ROW_220_2571
*8611 TAP_TAPCELL_ROW_220_2572
*8612 TAP_TAPCELL_ROW_220_2573
*8613 TAP_TAPCELL_ROW_220_2574
*8614 TAP_TAPCELL_ROW_220_2575
*8615 TAP_TAPCELL_ROW_220_2576
*8616 TAP_TAPCELL_ROW_220_2577
*8617 TAP_TAPCELL_ROW_220_2578
*8618 TAP_TAPCELL_ROW_220_2579
*8619 TAP_TAPCELL_ROW_220_2580
*8620 TAP_TAPCELL_ROW_220_2581
*8621 TAP_TAPCELL_ROW_220_2582
*8622 TAP_TAPCELL_ROW_220_2583
*8623 TAP_TAPCELL_ROW_220_2584
*8624 TAP_TAPCELL_ROW_220_2585
*8625 TAP_TAPCELL_ROW_220_2586
*8626 TAP_TAPCELL_ROW_220_2587
*8627 TAP_TAPCELL_ROW_220_2588
*8628 TAP_TAPCELL_ROW_220_2589
*8629 TAP_TAPCELL_ROW_220_2590
*8630 TAP_TAPCELL_ROW_220_2591
*8631 TAP_TAPCELL_ROW_220_2592
*8632 TAP_TAPCELL_ROW_220_2593
*8633 TAP_TAPCELL_ROW_220_2594
*8634 TAP_TAPCELL_ROW_22_1_1612
*8635 TAP_TAPCELL_ROW_22_1_1613
*8636 TAP_TAPCELL_ROW_22_2_2613
*8637 TAP_TAPCELL_ROW_22_3_2614
*8638 TAP_TAPCELL_ROW_22_3_2615
*8639 TAP_TAPCELL_ROW_23_1_1614
*8640 TAP_TAPCELL_ROW_23_3_2616
*8641 TAP_TAPCELL_ROW_24_1_1615
*8642 TAP_TAPCELL_ROW_24_1_1616
*8643 TAP_TAPCELL_ROW_24_2_2617
*8644 TAP_TAPCELL_ROW_24_3_2618
*8645 TAP_TAPCELL_ROW_24_3_2619
*8646 TAP_TAPCELL_ROW_25_1_1617
*8647 TAP_TAPCELL_ROW_25_3_2620
*8648 TAP_TAPCELL_ROW_26_1_1618
*8649 TAP_TAPCELL_ROW_26_1_1619
*8650 TAP_TAPCELL_ROW_26_2_2621
*8651 TAP_TAPCELL_ROW_26_3_2622
*8652 TAP_TAPCELL_ROW_26_3_2623
*8653 TAP_TAPCELL_ROW_27_1_1620
*8654 TAP_TAPCELL_ROW_27_3_2624
*8655 TAP_TAPCELL_ROW_28_1_1621
*8656 TAP_TAPCELL_ROW_28_1_1622
*8657 TAP_TAPCELL_ROW_28_2_2625
*8658 TAP_TAPCELL_ROW_28_3_2626
*8659 TAP_TAPCELL_ROW_28_3_2627
*8660 TAP_TAPCELL_ROW_29_1_1623
*8661 TAP_TAPCELL_ROW_29_3_2628
*8662 TAP_TAPCELL_ROW_2_1269
*8663 TAP_TAPCELL_ROW_2_1270
*8664 TAP_TAPCELL_ROW_2_1271
*8665 TAP_TAPCELL_ROW_2_1272
*8666 TAP_TAPCELL_ROW_2_1273
*8667 TAP_TAPCELL_ROW_2_1274
*8668 TAP_TAPCELL_ROW_2_1275
*8669 TAP_TAPCELL_ROW_2_1276
*8670 TAP_TAPCELL_ROW_2_1277
*8671 TAP_TAPCELL_ROW_2_1278
*8672 TAP_TAPCELL_ROW_2_1279
*8673 TAP_TAPCELL_ROW_2_1280
*8674 TAP_TAPCELL_ROW_2_1281
*8675 TAP_TAPCELL_ROW_2_1282
*8676 TAP_TAPCELL_ROW_2_1283
*8677 TAP_TAPCELL_ROW_2_1284
*8678 TAP_TAPCELL_ROW_2_1285
*8679 TAP_TAPCELL_ROW_2_1286
*8680 TAP_TAPCELL_ROW_2_1287
*8681 TAP_TAPCELL_ROW_2_1288
*8682 TAP_TAPCELL_ROW_2_1289
*8683 TAP_TAPCELL_ROW_2_1290
*8684 TAP_TAPCELL_ROW_2_1291
*8685 TAP_TAPCELL_ROW_2_1292
*8686 TAP_TAPCELL_ROW_2_1293
*8687 TAP_TAPCELL_ROW_2_1294
*8688 TAP_TAPCELL_ROW_2_1295
*8689 TAP_TAPCELL_ROW_2_1296
*8690 TAP_TAPCELL_ROW_30_1_1624
*8691 TAP_TAPCELL_ROW_30_1_1625
*8692 TAP_TAPCELL_ROW_30_2_2629
*8693 TAP_TAPCELL_ROW_30_3_2630
*8694 TAP_TAPCELL_ROW_30_3_2631
*8695 TAP_TAPCELL_ROW_31_1_1626
*8696 TAP_TAPCELL_ROW_31_3_2632
*8697 TAP_TAPCELL_ROW_32_1_1627
*8698 TAP_TAPCELL_ROW_32_1_1628
*8699 TAP_TAPCELL_ROW_32_2_2633
*8700 TAP_TAPCELL_ROW_32_3_2634
*8701 TAP_TAPCELL_ROW_32_3_2635
*8702 TAP_TAPCELL_ROW_33_1_1629
*8703 TAP_TAPCELL_ROW_33_3_2636
*8704 TAP_TAPCELL_ROW_34_1_1630
*8705 TAP_TAPCELL_ROW_34_1_1631
*8706 TAP_TAPCELL_ROW_34_2_2637
*8707 TAP_TAPCELL_ROW_34_3_2638
*8708 TAP_TAPCELL_ROW_34_3_2639
*8709 TAP_TAPCELL_ROW_35_1_1632
*8710 TAP_TAPCELL_ROW_35_3_2640
*8711 TAP_TAPCELL_ROW_36_1_1633
*8712 TAP_TAPCELL_ROW_36_1_1634
*8713 TAP_TAPCELL_ROW_36_2_2641
*8714 TAP_TAPCELL_ROW_36_3_2642
*8715 TAP_TAPCELL_ROW_36_3_2643
*8716 TAP_TAPCELL_ROW_37_1_1635
*8717 TAP_TAPCELL_ROW_37_3_2644
*8718 TAP_TAPCELL_ROW_38_1_1636
*8719 TAP_TAPCELL_ROW_38_1_1637
*8720 TAP_TAPCELL_ROW_38_2_2645
*8721 TAP_TAPCELL_ROW_38_3_2646
*8722 TAP_TAPCELL_ROW_38_3_2647
*8723 TAP_TAPCELL_ROW_39_1_1638
*8724 TAP_TAPCELL_ROW_39_3_2648
*8725 TAP_TAPCELL_ROW_3_1297
*8726 TAP_TAPCELL_ROW_3_1298
*8727 TAP_TAPCELL_ROW_3_1299
*8728 TAP_TAPCELL_ROW_3_1300
*8729 TAP_TAPCELL_ROW_3_1301
*8730 TAP_TAPCELL_ROW_3_1302
*8731 TAP_TAPCELL_ROW_3_1303
*8732 TAP_TAPCELL_ROW_3_1304
*8733 TAP_TAPCELL_ROW_3_1305
*8734 TAP_TAPCELL_ROW_3_1306
*8735 TAP_TAPCELL_ROW_3_1307
*8736 TAP_TAPCELL_ROW_3_1308
*8737 TAP_TAPCELL_ROW_3_1309
*8738 TAP_TAPCELL_ROW_3_1310
*8739 TAP_TAPCELL_ROW_3_1311
*8740 TAP_TAPCELL_ROW_3_1312
*8741 TAP_TAPCELL_ROW_3_1313
*8742 TAP_TAPCELL_ROW_3_1314
*8743 TAP_TAPCELL_ROW_3_1315
*8744 TAP_TAPCELL_ROW_3_1316
*8745 TAP_TAPCELL_ROW_3_1317
*8746 TAP_TAPCELL_ROW_3_1318
*8747 TAP_TAPCELL_ROW_3_1319
*8748 TAP_TAPCELL_ROW_3_1320
*8749 TAP_TAPCELL_ROW_3_1321
*8750 TAP_TAPCELL_ROW_3_1322
*8751 TAP_TAPCELL_ROW_3_1323
*8752 TAP_TAPCELL_ROW_40_1_1639
*8753 TAP_TAPCELL_ROW_40_1_1640
*8754 TAP_TAPCELL_ROW_40_2_2649
*8755 TAP_TAPCELL_ROW_40_3_2650
*8756 TAP_TAPCELL_ROW_40_3_2651
*8757 TAP_TAPCELL_ROW_41_1_1641
*8758 TAP_TAPCELL_ROW_41_3_2652
*8759 TAP_TAPCELL_ROW_42_1_1642
*8760 TAP_TAPCELL_ROW_42_1_1643
*8761 TAP_TAPCELL_ROW_42_2_2653
*8762 TAP_TAPCELL_ROW_42_3_2654
*8763 TAP_TAPCELL_ROW_42_3_2655
*8764 TAP_TAPCELL_ROW_43_1_1644
*8765 TAP_TAPCELL_ROW_43_3_2656
*8766 TAP_TAPCELL_ROW_44_1_1645
*8767 TAP_TAPCELL_ROW_44_1_1646
*8768 TAP_TAPCELL_ROW_44_2_2657
*8769 TAP_TAPCELL_ROW_44_3_2658
*8770 TAP_TAPCELL_ROW_44_3_2659
*8771 TAP_TAPCELL_ROW_45_1_1647
*8772 TAP_TAPCELL_ROW_45_3_2660
*8773 TAP_TAPCELL_ROW_46_1_1648
*8774 TAP_TAPCELL_ROW_46_1_1649
*8775 TAP_TAPCELL_ROW_46_2_2661
*8776 TAP_TAPCELL_ROW_46_3_2662
*8777 TAP_TAPCELL_ROW_46_3_2663
*8778 TAP_TAPCELL_ROW_47_1_1650
*8779 TAP_TAPCELL_ROW_47_3_2664
*8780 TAP_TAPCELL_ROW_48_1_1651
*8781 TAP_TAPCELL_ROW_48_1_1652
*8782 TAP_TAPCELL_ROW_48_2_2665
*8783 TAP_TAPCELL_ROW_48_3_2666
*8784 TAP_TAPCELL_ROW_48_3_2667
*8785 TAP_TAPCELL_ROW_49_1_1653
*8786 TAP_TAPCELL_ROW_49_3_2668
*8787 TAP_TAPCELL_ROW_4_1324
*8788 TAP_TAPCELL_ROW_4_1325
*8789 TAP_TAPCELL_ROW_4_1326
*8790 TAP_TAPCELL_ROW_4_1327
*8791 TAP_TAPCELL_ROW_4_1328
*8792 TAP_TAPCELL_ROW_4_1329
*8793 TAP_TAPCELL_ROW_4_1330
*8794 TAP_TAPCELL_ROW_4_1331
*8795 TAP_TAPCELL_ROW_4_1332
*8796 TAP_TAPCELL_ROW_4_1333
*8797 TAP_TAPCELL_ROW_4_1334
*8798 TAP_TAPCELL_ROW_4_1335
*8799 TAP_TAPCELL_ROW_4_1336
*8800 TAP_TAPCELL_ROW_4_1337
*8801 TAP_TAPCELL_ROW_4_1338
*8802 TAP_TAPCELL_ROW_4_1339
*8803 TAP_TAPCELL_ROW_4_1340
*8804 TAP_TAPCELL_ROW_4_1341
*8805 TAP_TAPCELL_ROW_4_1342
*8806 TAP_TAPCELL_ROW_4_1343
*8807 TAP_TAPCELL_ROW_4_1344
*8808 TAP_TAPCELL_ROW_4_1345
*8809 TAP_TAPCELL_ROW_4_1346
*8810 TAP_TAPCELL_ROW_4_1347
*8811 TAP_TAPCELL_ROW_4_1348
*8812 TAP_TAPCELL_ROW_4_1349
*8813 TAP_TAPCELL_ROW_4_1350
*8814 TAP_TAPCELL_ROW_4_1351
*8815 TAP_TAPCELL_ROW_50_1_1654
*8816 TAP_TAPCELL_ROW_50_1_1655
*8817 TAP_TAPCELL_ROW_50_2_2669
*8818 TAP_TAPCELL_ROW_50_3_2670
*8819 TAP_TAPCELL_ROW_50_3_2671
*8820 TAP_TAPCELL_ROW_51_1_1656
*8821 TAP_TAPCELL_ROW_51_3_2672
*8822 TAP_TAPCELL_ROW_52_1_1657
*8823 TAP_TAPCELL_ROW_52_1_1658
*8824 TAP_TAPCELL_ROW_52_2_2673
*8825 TAP_TAPCELL_ROW_52_3_2674
*8826 TAP_TAPCELL_ROW_52_3_2675
*8827 TAP_TAPCELL_ROW_53_1_1659
*8828 TAP_TAPCELL_ROW_53_3_2676
*8829 TAP_TAPCELL_ROW_54_1_1660
*8830 TAP_TAPCELL_ROW_54_1_1661
*8831 TAP_TAPCELL_ROW_54_2_2677
*8832 TAP_TAPCELL_ROW_54_3_2678
*8833 TAP_TAPCELL_ROW_54_3_2679
*8834 TAP_TAPCELL_ROW_55_1_1662
*8835 TAP_TAPCELL_ROW_55_3_2680
*8836 TAP_TAPCELL_ROW_56_1_1663
*8837 TAP_TAPCELL_ROW_56_1_1664
*8838 TAP_TAPCELL_ROW_56_2_2681
*8839 TAP_TAPCELL_ROW_56_3_2682
*8840 TAP_TAPCELL_ROW_56_3_2683
*8841 TAP_TAPCELL_ROW_57_1_1665
*8842 TAP_TAPCELL_ROW_57_3_2684
*8843 TAP_TAPCELL_ROW_58_1_1666
*8844 TAP_TAPCELL_ROW_58_1_1667
*8845 TAP_TAPCELL_ROW_58_2_2685
*8846 TAP_TAPCELL_ROW_58_3_2686
*8847 TAP_TAPCELL_ROW_58_3_2687
*8848 TAP_TAPCELL_ROW_59_1_1668
*8849 TAP_TAPCELL_ROW_59_3_2688
*8850 TAP_TAPCELL_ROW_5_1352
*8851 TAP_TAPCELL_ROW_5_1353
*8852 TAP_TAPCELL_ROW_5_1354
*8853 TAP_TAPCELL_ROW_5_1355
*8854 TAP_TAPCELL_ROW_5_1356
*8855 TAP_TAPCELL_ROW_5_1357
*8856 TAP_TAPCELL_ROW_5_1358
*8857 TAP_TAPCELL_ROW_5_1359
*8858 TAP_TAPCELL_ROW_5_1360
*8859 TAP_TAPCELL_ROW_5_1361
*8860 TAP_TAPCELL_ROW_5_1362
*8861 TAP_TAPCELL_ROW_5_1363
*8862 TAP_TAPCELL_ROW_5_1364
*8863 TAP_TAPCELL_ROW_5_1365
*8864 TAP_TAPCELL_ROW_5_1366
*8865 TAP_TAPCELL_ROW_5_1367
*8866 TAP_TAPCELL_ROW_5_1368
*8867 TAP_TAPCELL_ROW_5_1369
*8868 TAP_TAPCELL_ROW_5_1370
*8869 TAP_TAPCELL_ROW_5_1371
*8870 TAP_TAPCELL_ROW_5_1372
*8871 TAP_TAPCELL_ROW_5_1373
*8872 TAP_TAPCELL_ROW_5_1374
*8873 TAP_TAPCELL_ROW_5_1375
*8874 TAP_TAPCELL_ROW_5_1376
*8875 TAP_TAPCELL_ROW_5_1377
*8876 TAP_TAPCELL_ROW_5_1378
*8877 TAP_TAPCELL_ROW_60_1_1669
*8878 TAP_TAPCELL_ROW_60_1_1670
*8879 TAP_TAPCELL_ROW_60_2_2689
*8880 TAP_TAPCELL_ROW_60_3_2690
*8881 TAP_TAPCELL_ROW_60_3_2691
*8882 TAP_TAPCELL_ROW_61_1_1671
*8883 TAP_TAPCELL_ROW_61_3_2692
*8884 TAP_TAPCELL_ROW_62_1_1672
*8885 TAP_TAPCELL_ROW_62_1_1673
*8886 TAP_TAPCELL_ROW_62_2_2693
*8887 TAP_TAPCELL_ROW_62_3_2694
*8888 TAP_TAPCELL_ROW_62_3_2695
*8889 TAP_TAPCELL_ROW_63_1_1674
*8890 TAP_TAPCELL_ROW_63_3_2696
*8891 TAP_TAPCELL_ROW_64_1_1675
*8892 TAP_TAPCELL_ROW_64_1_1676
*8893 TAP_TAPCELL_ROW_64_2_2697
*8894 TAP_TAPCELL_ROW_64_3_2698
*8895 TAP_TAPCELL_ROW_64_3_2699
*8896 TAP_TAPCELL_ROW_65_1_1677
*8897 TAP_TAPCELL_ROW_65_3_2700
*8898 TAP_TAPCELL_ROW_66_1_1678
*8899 TAP_TAPCELL_ROW_66_1_1679
*8900 TAP_TAPCELL_ROW_66_2_2701
*8901 TAP_TAPCELL_ROW_66_3_2702
*8902 TAP_TAPCELL_ROW_66_3_2703
*8903 TAP_TAPCELL_ROW_67_1_1680
*8904 TAP_TAPCELL_ROW_67_3_2704
*8905 TAP_TAPCELL_ROW_68_1_1681
*8906 TAP_TAPCELL_ROW_68_1_1682
*8907 TAP_TAPCELL_ROW_68_2_2705
*8908 TAP_TAPCELL_ROW_68_3_2706
*8909 TAP_TAPCELL_ROW_68_3_2707
*8910 TAP_TAPCELL_ROW_69_1_1683
*8911 TAP_TAPCELL_ROW_69_3_2708
*8912 TAP_TAPCELL_ROW_6_1379
*8913 TAP_TAPCELL_ROW_6_1380
*8914 TAP_TAPCELL_ROW_6_1381
*8915 TAP_TAPCELL_ROW_6_1382
*8916 TAP_TAPCELL_ROW_6_1383
*8917 TAP_TAPCELL_ROW_6_1384
*8918 TAP_TAPCELL_ROW_6_1385
*8919 TAP_TAPCELL_ROW_6_1386
*8920 TAP_TAPCELL_ROW_6_1387
*8921 TAP_TAPCELL_ROW_6_1388
*8922 TAP_TAPCELL_ROW_6_1389
*8923 TAP_TAPCELL_ROW_6_1390
*8924 TAP_TAPCELL_ROW_6_1391
*8925 TAP_TAPCELL_ROW_6_1392
*8926 TAP_TAPCELL_ROW_6_1393
*8927 TAP_TAPCELL_ROW_6_1394
*8928 TAP_TAPCELL_ROW_6_1395
*8929 TAP_TAPCELL_ROW_6_1396
*8930 TAP_TAPCELL_ROW_6_1397
*8931 TAP_TAPCELL_ROW_6_1398
*8932 TAP_TAPCELL_ROW_6_1399
*8933 TAP_TAPCELL_ROW_6_1400
*8934 TAP_TAPCELL_ROW_6_1401
*8935 TAP_TAPCELL_ROW_6_1402
*8936 TAP_TAPCELL_ROW_6_1403
*8937 TAP_TAPCELL_ROW_6_1404
*8938 TAP_TAPCELL_ROW_6_1405
*8939 TAP_TAPCELL_ROW_6_1406
*8940 TAP_TAPCELL_ROW_70_1_1684
*8941 TAP_TAPCELL_ROW_70_1_1685
*8942 TAP_TAPCELL_ROW_70_2_2709
*8943 TAP_TAPCELL_ROW_70_3_2710
*8944 TAP_TAPCELL_ROW_70_3_2711
*8945 TAP_TAPCELL_ROW_71_1_1686
*8946 TAP_TAPCELL_ROW_71_3_2712
*8947 TAP_TAPCELL_ROW_72_1_1687
*8948 TAP_TAPCELL_ROW_72_1_1688
*8949 TAP_TAPCELL_ROW_72_2_2713
*8950 TAP_TAPCELL_ROW_72_3_2714
*8951 TAP_TAPCELL_ROW_72_3_2715
*8952 TAP_TAPCELL_ROW_73_1_1689
*8953 TAP_TAPCELL_ROW_73_3_2716
*8954 TAP_TAPCELL_ROW_74_1_1690
*8955 TAP_TAPCELL_ROW_74_1_1691
*8956 TAP_TAPCELL_ROW_74_2_2717
*8957 TAP_TAPCELL_ROW_74_3_2718
*8958 TAP_TAPCELL_ROW_74_3_2719
*8959 TAP_TAPCELL_ROW_75_1_1692
*8960 TAP_TAPCELL_ROW_75_3_2720
*8961 TAP_TAPCELL_ROW_76_1_1693
*8962 TAP_TAPCELL_ROW_76_1_1694
*8963 TAP_TAPCELL_ROW_76_2_2721
*8964 TAP_TAPCELL_ROW_76_3_2722
*8965 TAP_TAPCELL_ROW_76_3_2723
*8966 TAP_TAPCELL_ROW_77_1_1695
*8967 TAP_TAPCELL_ROW_77_3_2724
*8968 TAP_TAPCELL_ROW_78_1_1696
*8969 TAP_TAPCELL_ROW_78_1_1697
*8970 TAP_TAPCELL_ROW_78_2_2725
*8971 TAP_TAPCELL_ROW_78_3_2726
*8972 TAP_TAPCELL_ROW_78_3_2727
*8973 TAP_TAPCELL_ROW_79_1_1698
*8974 TAP_TAPCELL_ROW_79_3_2728
*8975 TAP_TAPCELL_ROW_7_1407
*8976 TAP_TAPCELL_ROW_7_1408
*8977 TAP_TAPCELL_ROW_7_1409
*8978 TAP_TAPCELL_ROW_7_1410
*8979 TAP_TAPCELL_ROW_7_1411
*8980 TAP_TAPCELL_ROW_7_1412
*8981 TAP_TAPCELL_ROW_7_1413
*8982 TAP_TAPCELL_ROW_7_1414
*8983 TAP_TAPCELL_ROW_7_1415
*8984 TAP_TAPCELL_ROW_7_1416
*8985 TAP_TAPCELL_ROW_7_1417
*8986 TAP_TAPCELL_ROW_7_1418
*8987 TAP_TAPCELL_ROW_7_1419
*8988 TAP_TAPCELL_ROW_7_1420
*8989 TAP_TAPCELL_ROW_7_1421
*8990 TAP_TAPCELL_ROW_7_1422
*8991 TAP_TAPCELL_ROW_7_1423
*8992 TAP_TAPCELL_ROW_7_1424
*8993 TAP_TAPCELL_ROW_7_1425
*8994 TAP_TAPCELL_ROW_7_1426
*8995 TAP_TAPCELL_ROW_7_1427
*8996 TAP_TAPCELL_ROW_7_1428
*8997 TAP_TAPCELL_ROW_7_1429
*8998 TAP_TAPCELL_ROW_7_1430
*8999 TAP_TAPCELL_ROW_7_1431
*9000 TAP_TAPCELL_ROW_7_1432
*9001 TAP_TAPCELL_ROW_7_1433
*9002 TAP_TAPCELL_ROW_80_1_1699
*9003 TAP_TAPCELL_ROW_80_1_1700
*9004 TAP_TAPCELL_ROW_80_2_2729
*9005 TAP_TAPCELL_ROW_80_3_2730
*9006 TAP_TAPCELL_ROW_80_3_2731
*9007 TAP_TAPCELL_ROW_81_1_1701
*9008 TAP_TAPCELL_ROW_81_3_2732
*9009 TAP_TAPCELL_ROW_82_1_1702
*9010 TAP_TAPCELL_ROW_82_1_1703
*9011 TAP_TAPCELL_ROW_82_2_2733
*9012 TAP_TAPCELL_ROW_82_3_2734
*9013 TAP_TAPCELL_ROW_82_3_2735
*9014 TAP_TAPCELL_ROW_83_1_1704
*9015 TAP_TAPCELL_ROW_83_3_2736
*9016 TAP_TAPCELL_ROW_84_1_1705
*9017 TAP_TAPCELL_ROW_84_1_1706
*9018 TAP_TAPCELL_ROW_84_2_2737
*9019 TAP_TAPCELL_ROW_84_3_2738
*9020 TAP_TAPCELL_ROW_84_3_2739
*9021 TAP_TAPCELL_ROW_85_1_1707
*9022 TAP_TAPCELL_ROW_85_3_2740
*9023 TAP_TAPCELL_ROW_86_1_1708
*9024 TAP_TAPCELL_ROW_86_1_1709
*9025 TAP_TAPCELL_ROW_86_2_2741
*9026 TAP_TAPCELL_ROW_86_3_2742
*9027 TAP_TAPCELL_ROW_86_3_2743
*9028 TAP_TAPCELL_ROW_87_1_1710
*9029 TAP_TAPCELL_ROW_87_3_2744
*9030 TAP_TAPCELL_ROW_88_1_1711
*9031 TAP_TAPCELL_ROW_88_1_1712
*9032 TAP_TAPCELL_ROW_88_2_2745
*9033 TAP_TAPCELL_ROW_88_3_2746
*9034 TAP_TAPCELL_ROW_88_3_2747
*9035 TAP_TAPCELL_ROW_89_1_1713
*9036 TAP_TAPCELL_ROW_89_3_2748
*9037 TAP_TAPCELL_ROW_8_1434
*9038 TAP_TAPCELL_ROW_8_1435
*9039 TAP_TAPCELL_ROW_8_1436
*9040 TAP_TAPCELL_ROW_8_1437
*9041 TAP_TAPCELL_ROW_8_1438
*9042 TAP_TAPCELL_ROW_8_1439
*9043 TAP_TAPCELL_ROW_8_1440
*9044 TAP_TAPCELL_ROW_8_1441
*9045 TAP_TAPCELL_ROW_8_1442
*9046 TAP_TAPCELL_ROW_8_1443
*9047 TAP_TAPCELL_ROW_8_1444
*9048 TAP_TAPCELL_ROW_8_1445
*9049 TAP_TAPCELL_ROW_8_1446
*9050 TAP_TAPCELL_ROW_8_1447
*9051 TAP_TAPCELL_ROW_8_1448
*9052 TAP_TAPCELL_ROW_8_1449
*9053 TAP_TAPCELL_ROW_8_1450
*9054 TAP_TAPCELL_ROW_8_1451
*9055 TAP_TAPCELL_ROW_8_1452
*9056 TAP_TAPCELL_ROW_8_1453
*9057 TAP_TAPCELL_ROW_8_1454
*9058 TAP_TAPCELL_ROW_8_1455
*9059 TAP_TAPCELL_ROW_8_1456
*9060 TAP_TAPCELL_ROW_8_1457
*9061 TAP_TAPCELL_ROW_8_1458
*9062 TAP_TAPCELL_ROW_8_1459
*9063 TAP_TAPCELL_ROW_8_1460
*9064 TAP_TAPCELL_ROW_8_1461
*9065 TAP_TAPCELL_ROW_90_1_1714
*9066 TAP_TAPCELL_ROW_90_1_1715
*9067 TAP_TAPCELL_ROW_90_2_2749
*9068 TAP_TAPCELL_ROW_90_3_2750
*9069 TAP_TAPCELL_ROW_90_3_2751
*9070 TAP_TAPCELL_ROW_91_1_1716
*9071 TAP_TAPCELL_ROW_91_3_2752
*9072 TAP_TAPCELL_ROW_92_1_1717
*9073 TAP_TAPCELL_ROW_92_1_1718
*9074 TAP_TAPCELL_ROW_92_2_2753
*9075 TAP_TAPCELL_ROW_92_3_2754
*9076 TAP_TAPCELL_ROW_92_3_2755
*9077 TAP_TAPCELL_ROW_93_1_1719
*9078 TAP_TAPCELL_ROW_93_3_2756
*9079 TAP_TAPCELL_ROW_94_1_1720
*9080 TAP_TAPCELL_ROW_94_1_1721
*9081 TAP_TAPCELL_ROW_94_2_2757
*9082 TAP_TAPCELL_ROW_94_3_2758
*9083 TAP_TAPCELL_ROW_94_3_2759
*9084 TAP_TAPCELL_ROW_95_1_1722
*9085 TAP_TAPCELL_ROW_95_3_2760
*9086 TAP_TAPCELL_ROW_96_1_1723
*9087 TAP_TAPCELL_ROW_96_1_1724
*9088 TAP_TAPCELL_ROW_96_2_2761
*9089 TAP_TAPCELL_ROW_96_3_2762
*9090 TAP_TAPCELL_ROW_96_3_2763
*9091 TAP_TAPCELL_ROW_97_1_1725
*9092 TAP_TAPCELL_ROW_97_3_2764
*9093 TAP_TAPCELL_ROW_98_1_1726
*9094 TAP_TAPCELL_ROW_98_1_1727
*9095 TAP_TAPCELL_ROW_98_2_2765
*9096 TAP_TAPCELL_ROW_98_3_2766
*9097 TAP_TAPCELL_ROW_98_3_2767
*9098 TAP_TAPCELL_ROW_99_1_1728
*9099 TAP_TAPCELL_ROW_99_3_2768
*9100 TAP_TAPCELL_ROW_9_1462
*9101 TAP_TAPCELL_ROW_9_1463
*9102 TAP_TAPCELL_ROW_9_1464
*9103 TAP_TAPCELL_ROW_9_1465
*9104 TAP_TAPCELL_ROW_9_1466
*9105 TAP_TAPCELL_ROW_9_1467
*9106 TAP_TAPCELL_ROW_9_1468
*9107 TAP_TAPCELL_ROW_9_1469
*9108 TAP_TAPCELL_ROW_9_1470
*9109 TAP_TAPCELL_ROW_9_1471
*9110 TAP_TAPCELL_ROW_9_1472
*9111 TAP_TAPCELL_ROW_9_1473
*9112 TAP_TAPCELL_ROW_9_1474
*9113 TAP_TAPCELL_ROW_9_1475
*9114 TAP_TAPCELL_ROW_9_1476
*9115 TAP_TAPCELL_ROW_9_1477
*9116 TAP_TAPCELL_ROW_9_1478
*9117 TAP_TAPCELL_ROW_9_1479
*9118 TAP_TAPCELL_ROW_9_1480
*9119 TAP_TAPCELL_ROW_9_1481
*9120 TAP_TAPCELL_ROW_9_1482
*9121 TAP_TAPCELL_ROW_9_1483
*9122 TAP_TAPCELL_ROW_9_1484
*9123 TAP_TAPCELL_ROW_9_1485
*9124 TAP_TAPCELL_ROW_9_1486
*9125 TAP_TAPCELL_ROW_9_1487
*9126 TAP_TAPCELL_ROW_9_1488
*9127 _176_
*9128 _177_
*9129 _178_
*9130 _179_
*9131 _180_
*9132 _181_
*9133 _182_
*9134 _183_
*9135 _184_
*9136 _185_
*9137 _186_
*9138 _187_
*9139 _188_
*9140 _189_
*9141 _190_
*9142 _191_
*9143 _192_
*9144 _193_
*9145 _194_
*9146 _195_
*9147 _196_
*9148 _197_
*9149 _198_
*9150 _199_
*9151 _200_
*9152 _201_
*9153 _202_
*9154 _203_
*9155 _204_
*9156 _205_
*9157 _206_
*9158 _207_
*9159 _208_
*9160 _209_
*9161 _210_
*9162 _211_
*9163 _212_
*9164 _213_
*9165 _214_
*9166 _215_
*9167 _216_
*9168 _217_
*9169 _218_
*9170 _219_
*9171 _220_
*9172 _221_
*9173 _222_
*9174 _223_
*9175 _224_
*9176 _225_
*9177 _226_
*9178 _227_
*9179 _228_
*9180 _229_
*9181 _230_
*9182 _231_
*9183 _232_
*9184 _233_
*9185 _234_
*9186 _235_
*9187 _236_
*9188 _237_
*9189 _238_
*9190 _239_
*9191 _240_
*9192 _241_
*9193 _242_
*9194 _243_
*9195 _244_
*9196 _245_
*9197 _246_
*9198 _247_
*9199 _248_
*9200 _249_
*9201 _250_
*9202 _251_
*9203 _252_
*9204 _253_
*9205 _254_
*9206 _255_
*9207 _256_
*9208 _257_
*9209 _258_
*9210 _259_
*9211 _260_
*9212 _261_
*9213 _262_
*9214 _263_
*9215 _264_
*9216 _265_
*9217 _266_
*9218 _267_
*9219 _268_
*9220 _269_
*9221 _270_
*9222 _271_
*9223 _272_
*9224 _273_
*9225 _274_
*9226 _275_
*9227 _276_
*9228 _277_
*9229 _278_
*9230 _279_
*9231 _280_
*9232 _281_
*9233 _282_
*9234 _283_
*9235 _284_
*9236 _285_
*9237 _286_
*9238 _287_
*9239 _288_
*9240 _289_
*9241 _290_
*9242 _291_
*9243 _292_
*9244 _293_
*9245 _294_
*9246 _295_
*9247 _296_
*9248 _297_
*9249 _298_
*9250 _299_
*9251 _300_
*9252 _301_
*9253 _302_
*9254 _303_
*9255 _304_
*9256 _305_
*9257 _306_
*9258 _307_
*9259 _308_
*9260 _309_
*9261 _310_
*9262 _311_
*9263 _312_
*9264 _313_
*9265 _314_
*9266 _315_
*9267 _316_
*9268 _317_
*9269 _318_
*9270 _319_
*9271 _320_
*9272 _321_
*9273 _322_
*9274 _323_
*9275 _324_
*9276 _325_
*9277 _326_
*9278 _327_
*9279 _328_
*9280 _329_
*9281 _330_
*9282 _331_
*9283 _332_
*9284 _333_
*9285 _334_
*9286 _335_
*9287 _336_
*9288 _337_
*9289 _338_
*9290 _339_
*9291 _340_
*9292 _341_
*9293 _342_
*9294 _343_
*9295 _344_
*9296 _345_
*9297 _346_
*9298 _347_
*9299 _348_
*9300 _349_
*9301 _350_
*9302 _351_
*9303 _352_
*9304 _353_
*9305 _354_
*9306 _355_
*9307 _356_
*9308 _357_
*9309 _358_
*9310 _359_
*9311 _360_
*9312 _361_
*9313 _362_
*9314 _363_
*9315 _364_
*9316 _365_
*9317 _366_
*9318 _367_
*9319 _368_
*9320 _369_
*9321 _370_
*9322 _371_
*9323 _372_
*9324 _373_
*9325 _374_
*9326 _375_
*9327 _376_
*9328 _377_
*9329 _378_
*9330 _379_
*9331 _380_
*9332 _381_
*9333 _382_
*9334 _383_
*9335 _384_
*9336 _385_
*9337 _386_
*9338 _387_
*9339 _388_
*9340 _389_
*9341 _390_
*9342 _391_
*9343 _392_
*9344 _393_
*9345 _394_
*9346 _395_
*9347 _396_
*9348 _397_
*9349 _398_
*9350 _399_
*9351 _400_
*9352 _401_
*9353 _402_
*9354 _403_
*9355 _404_
*9356 _405_
*9357 _406_
*9358 _407_
*9359 _408_
*9360 _409_
*9361 _410_
*9362 _411_
*9363 _412_
*9364 _413_
*9365 _414_
*9366 _415_
*9367 _416_
*9368 _417_
*9369 _418_
*9370 _419_
*9371 _420_
*9372 _421_
*9373 _422_
*9374 _423_
*9375 _424_
*9376 _425_
*9377 _426_
*9378 _427_
*9379 _428_
*9380 _429_
*9381 _430_
*9382 _431_
*9383 _432_
*9384 _433_
*9385 _434_
*9386 _435_
*9387 _436_
*9388 _437_
*9389 _438_
*9390 _439_
*9391 _440_
*9392 _441_
*9393 _442_
*9394 _443_
*9395 _444_
*9396 _445_
*9397 _446_
*9398 _447_
*9399 _448_
*9400 _449_
*9401 _450_
*9402 _451_
*9403 _452_
*9404 _453_
*9405 _454_
*9406 _455_
*9407 _456_
*9408 _457_
*9409 _458_
*9410 _459_
*9411 _460_
*9412 _461_
*9413 _462_
*9414 _463_
*9415 _464_
*9416 _465_
*9417 _466_
*9418 _467_
*9419 _468_
*9420 _469_
*9421 _470_
*9422 _471_
*9423 _472_
*9424 _473_
*9425 _474_
*9426 _475_
*9427 _476_
*9428 _477_
*9429 _478_
*9430 _479_
*9431 _480_
*9432 _481_
*9433 _482_
*9434 _483_
*9435 _484_
*9436 _485_
*9437 _486_
*9438 _487_
*9439 _488_
*9440 _489_
*9441 _490_
*9442 _491_
*9443 _492_
*9444 _493_
*9445 _494_
*9446 _495_
*9447 _496_
*9448 _497_
*9449 _498_
*9450 _499_
*9451 _500_
*9452 _518_
*9453 _519_
*9454 _520_
*9455 clkbuf_0_clk_i
*9456 clkbuf_0_clk_i_regs
*9457 clkbuf_1_0__f_clk_i
*9458 clkbuf_1_1__f_clk_i
*9459 clkbuf_2_0__f_clk_i_regs
*9460 clkbuf_2_1__f_clk_i_regs
*9461 clkbuf_2_2__f_clk_i_regs
*9462 clkbuf_2_3__f_clk_i_regs
*9463 clkbuf_regs_0_clk_i
*9464 clkload0
*9465 clkload1
*9466 clkload2
*9467 fanout122
*9468 fanout126
*9469 fanout133
*9470 fanout136
*9471 fanout140
*9472 fanout144
*9473 fanout148
*9474 fanout152
*9475 fanout156
*9476 input1
*9477 input10
*9478 input11
*9479 input12
*9480 input13
*9481 input14
*9482 input15
*9483 input16
*9484 input17
*9485 input18
*9486 input19
*9487 input2
*9488 input20
*9489 input21
*9490 input22
*9491 input23
*9492 input24
*9493 input25
*9494 input26
*9495 input27
*9496 input28
*9497 input29
*9498 input3
*9499 input30
*9500 input31
*9501 input32
*9502 input33
*9503 input34
*9504 input35
*9505 input36
*9506 input37
*9507 input38
*9508 input39
*9509 input4
*9510 input40
*9511 input41
*9512 input42
*9513 input43
*9514 input44
*9515 input45
*9516 input46
*9517 input47
*9518 input48
*9519 input49
*9520 input5
*9521 input50
*9522 input51
*9523 input52
*9524 input53
*9525 input54
*9526 input55
*9527 input56
*9528 input57
*9529 input58
*9530 input59
*9531 input6
*9532 input60
*9533 input61
*9534 input62
*9535 input63
*9536 input64
*9537 input65
*9538 input66
*9539 input67
*9540 input68
*9541 input69
*9542 input7
*9543 input70
*9544 input8
*9545 input9
*9546 load_slew120
*9547 load_slew121
*9548 load_slew124
*9549 load_slew125
*9550 load_slew129
*9551 load_slew130
*9552 load_slew131
*9553 load_slew135
*9554 load_slew137
*9555 load_slew138
*9556 load_slew139
*9557 load_slew143
*9558 load_slew145
*9559 load_slew147
*9560 load_slew150
*9561 load_slew151
*9562 load_slew155
*9563 load_slew159
*9564 load_slew162
*9565 load_slew163
*9566 output100
*9567 output101
*9568 output102
*9569 output103
*9570 output104
*9571 output105
*9572 output106
*9573 output107
*9574 output108
*9575 output109
*9576 output110
*9577 output111
*9578 output112
*9579 output113
*9580 output114
*9581 output115
*9582 output116
*9583 output117
*9584 output118
*9585 output119
*9586 output71
*9587 output72
*9588 output73
*9589 output74
*9590 output75
*9591 output76
*9592 output77
*9593 output78
*9594 output79
*9595 output80
*9596 output81
*9597 output82
*9598 output83
*9599 output84
*9600 output85
*9601 output86
*9602 output87
*9603 output88
*9604 output89
*9605 output90
*9606 output91
*9607 output92
*9608 output93
*9609 output94
*9610 output95
*9611 output96
*9612 output97
*9613 output98
*9614 output99
*9615 tlul_sram_if_macro
*9616 tlul_sram_if_macro_180
*9617 tlul_sram_if_macro_181
*9618 tlul_sram_if_macro_182
*9619 tlul_sram_if_macro_183
*9620 tlul_sram_if_macro_184
*9621 tlul_sram_if_macro_185
*9622 tlul_sram_if_macro_186
*9623 tlul_sram_if_macro_187
*9624 tlul_sram_if_macro_188
*9625 tlul_sram_if_macro_189
*9626 tlul_sram_if_macro_190
*9627 tlul_sram_if_macro_191
*9628 tlul_sram_if_macro_192
*9629 tlul_sram_if_macro_193
*9630 tlul_sram_if_macro_194
*9631 tlul_sram_if_macro_195
*9632 u_mem\.gen_byte\[0\]\.u_macro
*9633 u_mem\.gen_byte\[1\]\.u_macro
*9634 u_mem\.gen_byte\[2\]\.u_macro
*9635 u_mem\.gen_byte\[3\]\.u_macro
*9636 wire123
*9637 wire127
*9638 wire128
*9639 wire132
*9640 wire134
*9641 wire141
*9642 wire142
*9643 wire146
*9644 wire149
*9645 wire153
*9646 wire154
*9647 wire157
*9648 wire158
*9649 wire160
*9650 wire161
*9651 wire164
*9652 wire165
*9653 wire166
*9654 wire167
*9655 wire168
*9656 wire169
*9657 wire170
*9658 wire171
*9659 wire172
*9660 wire173
*9661 wire174
*9662 wire175
*9663 wire176
*9664 wire177
*9665 wire178
*9666 wire179

*PORTS
clk_i I
en_ifetch_i[0] I
en_ifetch_i[1] I
en_ifetch_i[2] I
en_ifetch_i[3] I
rst_ni I
tl_i[0] I
tl_i[100] I
tl_i[101] I
tl_i[102] I
tl_i[103] I
tl_i[104] I
tl_i[105] I
tl_i[106] I
tl_i[107] I
tl_i[108] I
tl_i[109] I
tl_i[10] I
tl_i[110] I
tl_i[111] I
tl_i[112] I
tl_i[113] I
tl_i[11] I
tl_i[12] I
tl_i[13] I
tl_i[14] I
tl_i[15] I
tl_i[16] I
tl_i[17] I
tl_i[18] I
tl_i[19] I
tl_i[1] I
tl_i[20] I
tl_i[21] I
tl_i[22] I
tl_i[23] I
tl_i[24] I
tl_i[25] I
tl_i[26] I
tl_i[27] I
tl_i[28] I
tl_i[29] I
tl_i[2] I
tl_i[30] I
tl_i[31] I
tl_i[32] I
tl_i[33] I
tl_i[34] I
tl_i[35] I
tl_i[36] I
tl_i[37] I
tl_i[38] I
tl_i[39] I
tl_i[3] I
tl_i[40] I
tl_i[41] I
tl_i[42] I
tl_i[43] I
tl_i[44] I
tl_i[45] I
tl_i[46] I
tl_i[47] I
tl_i[48] I
tl_i[49] I
tl_i[4] I
tl_i[50] I
tl_i[51] I
tl_i[52] I
tl_i[53] I
tl_i[54] I
tl_i[55] I
tl_i[56] I
tl_i[57] I
tl_i[58] I
tl_i[59] I
tl_i[5] I
tl_i[60] I
tl_i[61] I
tl_i[62] I
tl_i[63] I
tl_i[64] I
tl_i[65] I
tl_i[66] I
tl_i[67] I
tl_i[68] I
tl_i[69] I
tl_i[6] I
tl_i[70] I
tl_i[71] I
tl_i[72] I
tl_i[73] I
tl_i[74] I
tl_i[75] I
tl_i[76] I
tl_i[77] I
tl_i[78] I
tl_i[79] I
tl_i[7] I
tl_i[80] I
tl_i[81] I
tl_i[82] I
tl_i[83] I
tl_i[84] I
tl_i[85] I
tl_i[86] I
tl_i[87] I
tl_i[88] I
tl_i[89] I
tl_i[8] I
tl_i[90] I
tl_i[91] I
tl_i[92] I
tl_i[93] I
tl_i[94] I
tl_i[95] I
tl_i[96] I
tl_i[97] I
tl_i[98] I
tl_i[99] I
tl_i[9] I
tl_o[0] O
tl_o[10] O
tl_o[11] O
tl_o[12] O
tl_o[13] O
tl_o[14] O
tl_o[15] O
tl_o[16] O
tl_o[17] O
tl_o[18] O
tl_o[19] O
tl_o[1] O
tl_o[20] O
tl_o[21] O
tl_o[22] O
tl_o[23] O
tl_o[24] O
tl_o[25] O
tl_o[26] O
tl_o[27] O
tl_o[28] O
tl_o[29] O
tl_o[2] O
tl_o[30] O
tl_o[31] O
tl_o[32] O
tl_o[33] O
tl_o[34] O
tl_o[35] O
tl_o[36] O
tl_o[37] O
tl_o[38] O
tl_o[39] O
tl_o[3] O
tl_o[40] O
tl_o[41] O
tl_o[42] O
tl_o[43] O
tl_o[44] O
tl_o[45] O
tl_o[46] O
tl_o[47] O
tl_o[48] O
tl_o[49] O
tl_o[4] O
tl_o[50] O
tl_o[51] O
tl_o[52] O
tl_o[53] O
tl_o[54] O
tl_o[55] O
tl_o[56] O
tl_o[57] O
tl_o[58] O
tl_o[59] O
tl_o[5] O
tl_o[60] O
tl_o[61] O
tl_o[62] O
tl_o[63] O
tl_o[64] O
tl_o[65] O
tl_o[6] O
tl_o[7] O
tl_o[8] O
tl_o[9] O

*D_NET *3 0.0666633
*CONN
*P clk_i I
*I *9463:I I *D gf180mcu_fd_sc_mcu7t5v0__clkbuf_16
*I *9455:I I *D gf180mcu_fd_sc_mcu7t5v0__clkbuf_16
*CAP
1 clk_i 0.00216525
2 *9463:I 0
3 *9455:I 5.29945e-05
4 *3:73 0.000364791
5 *3:61 0.00157869
6 *3:54 0.00402213
7 *3:50 0.00604225
8 *3:46 0.00470752
9 *3:36 0.00276279
10 *3:14 0.0102977
11 *3:12 0.0104971
12 *9455:I *191:10 1.70394e-05
13 *9455:I *261:10 0.000102578
14 *3:14 tl_o[2] 0.00391945
15 *3:36 tl_o[14] 0.000424522
16 *3:36 tl_o[21] 5.97039e-05
17 *3:36 tl_o[3] 0.00015601
18 *3:36 *9258:A1 0.000301671
19 *3:36 *9258:B1 0.000484764
20 *3:36 *9480:I 0.00047698
21 *3:36 *9483:I 0.000109514
22 *3:36 *9484:I 0.000584587
23 *3:36 *9529:I 0.000766371
24 *3:36 *9530:I 0.000376746
25 *3:36 *9543:I 0.000383519
26 *3:36 *9:23 2.48824e-05
27 *3:46 *9130:I 0.000154409
28 *3:46 *514:14 0.000153837
29 *3:50 tl_o[8] 7.36819e-05
30 *3:50 *9146:A1 0
31 *3:50 *9146:A2 0.000225567
32 *3:50 *9233:A1 0.000144577
33 *3:50 *9245:A3 3.22108e-05
34 *3:50 *9257:A1 8.01325e-05
35 *3:50 *9260:A2 0.000203893
36 *3:50 *9260:B 0.000606748
37 *3:50 *9261:A4 7.41647e-05
38 *3:50 *9291:A2 0.000128794
39 *3:50 *9313:A2 6.69436e-05
40 *3:50 *9374:S 0
41 *3:50 *9376:I1 0
42 *3:50 *9612:I 1.59524e-05
43 *3:50 *191:8 0.000376317
44 *3:50 *191:10 0
45 *3:50 *304:18 1.0975e-05
46 *3:50 *332:14 3.2098e-05
47 *3:50 *378:176 0.00339911
48 *3:50 *402:18 9.09864e-05
49 *3:50 *513:20 0.000740089
50 *3:50 *513:49 0.000100568
51 *3:50 *514:48 1.73106e-05
52 *3:50 *514:69 0
53 *3:50 *517:20 0.000518458
54 *3:50 *650:10 7.51445e-05
55 *3:54 *191:10 0.00188023
56 *3:54 *261:8 0.00350273
57 *3:54 *261:10 0.000350032
58 *3:61 *191:10 0.000368293
59 *3:61 *261:10 0.00256051
*RES
1 clk_i *3:12 23.168 
2 *3:12 *3:14 87.464 
3 *3:14 *3:36 49.256 
4 *3:36 *3:46 18.492 
5 *3:46 *3:50 41.392 
6 *3:50 *3:54 33.724 
7 *3:54 *3:61 21.9534 
8 *3:61 *9455:I 5.24657 
9 *3:54 *3:73 2.808 
10 *3:73 *9463:I 9 
*END

*D_NET *4 0.0158425
*CONN
*P en_ifetch_i[0] I
*I *9476:I I *D gf180mcu_fd_sc_mcu7t5v0__dlyd_1
*CAP
1 en_ifetch_i[0] 0.00223208
2 *9476:I 0
3 *4:25 0.00223208
4 *4:25 tl_o[24] 0.000547318
5 *4:25 tl_o[25] 0.00330474
6 *4:25 tl_o[55] 0.00042999
7 *4:25 *9247:A2 0.00204204
8 *4:25 *9248:A3 0.00171108
9 *4:25 *9255:A1 6.70879e-05
10 *4:25 *9255:A2 0.000110509
11 *4:25 *9382:I1 0.000235308
12 *4:25 *9438:D 8.31796e-06
13 *4:25 *9499:I 0.000268917
14 *4:25 *9578:I 8.53348e-05
15 *4:25 *9597:I 0.000718353
16 *4:25 *474:44 0.000380839
17 *4:25 *514:14 0.000688763
18 *4:25 *610:14 0.00076771
19 *4:25 *613:22 1.20237e-05
*RES
1 en_ifetch_i[0] *4:25 48.836 
2 *4:25 *9476:I 4.5 
*END

*D_NET *5 0.00973666
*CONN
*P en_ifetch_i[1] I
*I *9487:I I *D gf180mcu_fd_sc_mcu7t5v0__dlyd_1
*CAP
1 en_ifetch_i[1] 0.00180981
2 *9487:I 0.00180981
3 *9487:I tl_o[12] 0.00189067
4 *9487:I tl_o[55] 0.00101257
5 *9487:I tl_o[58] 0.000730455
6 *9487:I tl_o[63] 0.00085087
7 *9487:I *9216:A1 0
8 *9487:I *9438:CLK 0.000229202
9 *9487:I *9509:I 0.000996307
10 *9487:I *9578:I 0.000406961
*RES
1 en_ifetch_i[1] *9487:I 42.256 
*END

*D_NET *6 0.0108826
*CONN
*P en_ifetch_i[2] I
*I *9498:I I *D gf180mcu_fd_sc_mcu7t5v0__dlyd_1
*CAP
1 en_ifetch_i[2] 0.00193063
2 *9498:I 0.00193063
3 *9498:I tl_o[48] 0.00060159
4 *9498:I tl_o[49] 7.70965e-05
5 *9498:I tl_o[55] 4.30726e-05
6 *9498:I tl_o[56] 6.75031e-05
7 *9498:I *9436:D 0.000314845
8 *9498:I *9436:CLK 3.36776e-05
9 *9498:I *9488:I 0.00183241
10 *9498:I *9509:I 0.00364038
11 *9498:I *9579:I 0.000410754
*RES
1 en_ifetch_i[2] *9498:I 38.928 
*END

*D_NET *7 0.0112563
*CONN
*P en_ifetch_i[3] I
*I *9509:I I *D gf180mcu_fd_sc_mcu7t5v0__dlyd_1
*CAP
1 en_ifetch_i[3] 0.00260713
2 *9509:I 0.00260713
3 *9509:I tl_o[12] 9.21976e-05
4 *9509:I tl_o[24] 8.25927e-05
5 *9509:I tl_o[48] 0.000841484
6 *9509:I *9438:D 0.000154069
7 *9509:I *9578:I 0.000234968
8 *9487:I *9509:I 0.000996307
9 *9498:I *9509:I 0.00364038
*RES
1 en_ifetch_i[3] *9509:I 42.984 
*END

*D_NET *8 0.0172907
*CONN
*P rst_ni I
*I *9520:I I *D gf180mcu_fd_sc_mcu7t5v0__dlyd_1
*CAP
1 rst_ni 0.0015658
2 *9520:I 0.0015658
3 *9520:I tl_o[13] 0.000925392
4 *9520:I tl_o[58] 3.9462e-05
5 *9520:I tl_o[63] 0.000845142
6 *9520:I tl_o[65] 2.73715e-06
7 *9520:I tl_o[6] 0.00184246
8 *9520:I *9216:A2 0.000236426
9 *9520:I *9385:I1 9.35542e-06
10 *9520:I *9385:S 0.00071646
11 *9520:I *9436:CLK 0.000271807
12 *9520:I *9528:I 0.0059351
13 *9520:I *9573:I 5.21725e-05
14 *9520:I *9576:I 0.000102761
15 *9520:I *9581:I 0.000403233
16 *9520:I *9597:I 0.00149363
17 *9520:I *9599:I 1.57138e-05
18 *9520:I *9613:I 0.00038774
19 *9520:I *594:135 0.000879474
*RES
1 rst_ni *9520:I 43.712 
*END

*D_NET *9 0.0127376
*CONN
*P tl_i[0] I
*I *9531:I I *D gf180mcu_fd_sc_mcu7t5v0__dlyd_1
*CAP
1 tl_i[0] 0.00273299
2 *9531:I 0
3 *9:23 0.00273299
4 *9:23 tl_o[2] 0
5 *9:23 tl_o[51] 5.99639e-05
6 *9:23 *9230:A2 0.000498816
7 *9:23 *9232:A2 0.000498816
8 *9:23 *9381:I0 0.00134054
9 *9:23 *9482:I 0.000252775
10 *9:23 *9484:I 0.000285843
11 *9:23 *9527:I 0.000462051
12 *9:23 *9530:I 0.000740396
13 *9:23 *9534:I 0.00298099
14 *9:23 *422:48 0.000118075
15 *9:23 *609:8 8.44565e-06
16 *3:36 *9:23 2.48824e-05
*RES
1 tl_i[0] *9:23 47.068 
2 *9:23 *9531:I 4.5 
*END

*D_NET *10 0.00969994
*CONN
*P tl_i[100] I
*I *9542:I I *D gf180mcu_fd_sc_mcu7t5v0__dlyd_1
*CAP
1 tl_i[100] 0.0026071
2 *9542:I 0.0026071
3 *9542:I tl_o[21] 0.00140973
4 *9542:I tl_o[3] 0.000838583
5 *9542:I tl_o[51] 0.000330011
6 *9542:I tl_o[5] 0.00119907
7 *9542:I tl_o[62] 0.000380497
8 *9542:I *9226:A1 3.57108e-05
9 *9542:I *9226:A2 0.000184052
10 *9542:I *9380:S 3.51644e-05
11 *9542:I *9535:I 6.75785e-05
12 *9542:I *9539:I 5.35362e-06
*RES
1 tl_i[100] *9542:I 44.08 
*END

*D_NET *11 0.0082286
*CONN
*P tl_i[101] I
*I *9544:I I *D gf180mcu_fd_sc_mcu7t5v0__dlyd_1
*CAP
1 tl_i[101] 0.00147629
2 *9544:I 0.00147629
3 *9544:I tl_o[49] 0.00212851
4 *9544:I *9236:A2 7.87395e-06
5 *9544:I *9250:A2 1.60428e-05
6 *9544:I *9250:A3 0.000468956
7 *9544:I *9255:A2 9.52609e-05
8 *9544:I *9262:A2 7.56248e-06
9 *9544:I *9477:I 0.000502762
10 *9544:I *9536:I 0.000250228
11 *9544:I *9540:I 0.00179882
*RES
1 tl_i[101] *9544:I 25.04 
*END

*D_NET *12 0.0120185
*CONN
*P tl_i[102] I
*I *9545:I I *D gf180mcu_fd_sc_mcu7t5v0__dlyd_1
*CAP
1 tl_i[102] 0.00175042
2 *9545:I 0.00175042
3 *9545:I tl_o[23] 0.00215358
4 *9545:I tl_o[4] 0.00194589
5 *9545:I tl_o[54] 0.000103922
6 *9545:I *9227:A1 2.24654e-05
7 *9545:I *9227:A2 0.0018163
8 *9545:I *9249:A2 8.38125e-05
9 *9545:I *9479:I 0.000527255
10 *9545:I *9481:I 0.000702563
11 *9545:I *256:12 4.63426e-05
12 *9545:I *404:14 0.000114782
13 *9545:I *460:110 0.000251311
14 *9545:I *460:123 0.000562866
15 *9545:I *460:129 0.000186635
*RES
1 tl_i[102] *9545:I 38.512 
*END

*D_NET *13 0.00926553
*CONN
*P tl_i[103] I
*I *9477:I I *D gf180mcu_fd_sc_mcu7t5v0__dlyd_1
*CAP
1 tl_i[103] 0.000894677
2 *9477:I 0.000894677
3 *9477:I tl_o[27] 0.00099683
4 *9477:I tl_o[57] 0.00257882
5 *9477:I *9250:A3 0.000577726
6 *9477:I *9262:A2 0.00040701
7 *9477:I *9262:B 7.56902e-05
8 *9477:I *9388:B 0.000271774
9 *9477:I *9540:I 0.00180622
10 *9477:I *9639:I 0.000259344
11 *9544:I *9477:I 0.000502762
*RES
1 tl_i[103] *9477:I 31.232 
*END

*D_NET *14 0.0088706
*CONN
*P tl_i[104] I
*I *9478:I I *D gf180mcu_fd_sc_mcu7t5v0__dlyd_1
*CAP
1 tl_i[104] 0.00171486
2 *9478:I 0.00171486
3 *9478:I tl_o[56] 0.00142088
4 *9478:I tl_o[64] 0.000271764
5 *9478:I *9249:A2 0.000166591
6 *9478:I *9263:A2 0.000363377
7 *9478:I *9488:I 4.28314e-05
8 *9478:I *9526:I 0.000464762
9 *9478:I *9591:I 0.00108082
10 *9478:I *460:150 0.000388904
11 *9478:I *484:22 0.000164691
12 *9478:I *506:20 0.000317027
13 *9478:I *512:16 0.000672285
14 *9478:I *543:16 8.695e-05
*RES
1 tl_i[104] *9478:I 35.08 
*END

*D_NET *15 0.0094767
*CONN
*P tl_i[105] I
*I *9479:I I *D gf180mcu_fd_sc_mcu7t5v0__dlyd_1
*CAP
1 tl_i[105] 0.00145892
2 *9479:I 0.00145892
3 *9479:I tl_o[54] 6.60087e-05
4 *9479:I *9223:A1 0.000605863
5 *9479:I *9227:A1 5.61634e-05
6 *9479:I *9379:I1 8.44565e-06
7 *9479:I *9433:D 0.00294848
8 *9479:I *9468:I 0.000169324
9 *9479:I *9481:I 0.000901042
10 *9479:I *9532:I 3.6143e-05
11 *9479:I *9543:I 0.000917357
12 *9479:I *9639:I 2.46957e-05
13 *9479:I *295:20 9.9336e-05
14 *9479:I *404:14 0.000170759
15 *9479:I *460:123 0
16 *9479:I *460:129 2.79795e-05
17 *9545:I *9479:I 0.000527255
*RES
1 tl_i[105] *9479:I 33.728 
*END

*D_NET *16 0.00947432
*CONN
*P tl_i[106] I
*I *9480:I I *D gf180mcu_fd_sc_mcu7t5v0__dlyd_1
*CAP
1 tl_i[106] 0.0012763
2 *9480:I 0.0012763
3 *9480:I tl_o[21] 0.000388147
4 *9480:I tl_o[23] 0.000444419
5 *9480:I tl_o[4] 0.000444419
6 *9480:I tl_o[5] 4.18042e-05
7 *9480:I tl_o[8] 0.000223488
8 *9480:I *9258:A1 0.000131739
9 *9480:I *9258:B1 6.84196e-06
10 *9480:I *9261:A1 0.00129818
11 *9480:I *9261:A4 8.42413e-05
12 *9480:I *9262:B 0.000300659
13 *9480:I *9529:I 0.00148286
14 *9480:I *9533:I 0.000271764
15 *9480:I *9535:I 0.00115713
16 *9480:I *393:14 6.3415e-05
17 *9480:I *513:20 0.000105623
18 *3:36 *9480:I 0.00047698
*RES
1 tl_i[106] *9480:I 41.48 
*END

*D_NET *21 0.00869848
*CONN
*P tl_i[110] I
*I *9481:I I *D gf180mcu_fd_sc_mcu7t5v0__dlyd_1
*CAP
1 tl_i[110] 0.0022577
2 *9481:I 0.0022577
3 *9481:I tl_o[10] 0.00168771
4 *9481:I *9223:A1 8.35838e-05
5 *9481:I *9223:A2 8.90321e-05
6 *9481:I *9227:A1 4.00092e-05
7 *9481:I *9379:I1 4.67771e-06
8 *9481:I *295:20 0.000187176
9 *9481:I *365:14 0.00011484
10 *9481:I *404:14 3.76996e-05
11 *9481:I *460:123 0
12 *9481:I *460:129 7.02771e-05
13 *9481:I *594:26 0.000264477
14 *9479:I *9481:I 0.000901042
15 *9545:I *9481:I 0.000702563
*RES
1 tl_i[110] *9481:I 44.496 
*END

*D_NET *22 0.0139631
*CONN
*P tl_i[111] I
*I *9482:I I *D gf180mcu_fd_sc_mcu7t5v0__clkbuf_2
*CAP
1 tl_i[111] 0.00127527
2 *9482:I 0.00127527
3 *9482:I tl_o[51] 0.00106675
4 *9482:I tl_o[60] 0.000125347
5 *9482:I *9217:A1 0
6 *9482:I *9380:I1 0
7 *9482:I *9437:D 8.12504e-06
8 *9482:I *9483:I 0.00868558
9 *9482:I *9484:I 0.00127395
10 *9:23 *9482:I 0.000252775
*RES
1 tl_i[111] *9482:I 40.176 
*END

*D_NET *23 0.0185609
*CONN
*P tl_i[112] I
*I *9483:I I *D gf180mcu_fd_sc_mcu7t5v0__clkbuf_2
*CAP
1 tl_i[112] 0.0010403
2 *9483:I 0.0010403
3 *9483:I tl_o[2] 7.18295e-06
4 *9483:I tl_o[60] 0.00763769
5 *9483:I *9496:I 4.03094e-05
6 *9482:I *9483:I 0.00868558
7 *3:36 *9483:I 0.000109514
*RES
1 tl_i[112] *9483:I 42.048 
*END

*D_NET *24 0.0124521
*CONN
*P tl_i[113] I
*I *9484:I I *D gf180mcu_fd_sc_mcu7t5v0__dlyd_1
*CAP
1 tl_i[113] 0.00111104
2 *9484:I 0.00111104
3 *9484:I tl_o[21] 5.91998e-05
4 *9484:I tl_o[3] 0.000379345
5 *9484:I tl_o[5] 6.17438e-05
6 *9484:I *9527:I 0.000247534
7 *9484:I *9530:I 0.000956357
8 *9484:I *9534:I 2.32102e-05
9 *9484:I *9538:I 0.000247534
10 *9484:I *9539:I 0.00220041
11 *9484:I *422:14 0.0033755
12 *9484:I *422:85 0.000534809
13 *9482:I *9484:I 0.00127395
14 *3:36 *9484:I 0.000584587
15 *9:23 *9484:I 0.000285843
*RES
1 tl_i[113] *9484:I 34.56 
*END

*D_NET *29 0.00481135
*CONN
*P tl_i[15] I
*I *9485:I I *D gf180mcu_fd_sc_mcu7t5v0__dlyd_1
*CAP
1 tl_i[15] 0.000683195
2 *9485:I 0.000683195
3 *9485:I tl_o[1] 0.00150903
4 *9485:I tl_o[27] 0.000251583
5 *9485:I tl_o[57] 0.0013021
6 *9485:I *9262:B 0.000258226
7 *9485:I *9489:I 0.00012402
*RES
1 tl_i[15] *9485:I 16.408 
*END

*D_NET *30 0.0124909
*CONN
*P tl_i[16] I
*I *9486:I I *D gf180mcu_fd_sc_mcu7t5v0__dlyd_1
*CAP
1 tl_i[16] 0.00117312
2 *9486:I 0.00117312
3 *9486:I tl_o[13] 0.00275223
4 *9486:I tl_o[40] 0.000161606
5 *9486:I tl_o[55] 9.67931e-05
6 *9486:I tl_o[63] 0.00495031
7 *9486:I tl_o[65] 0.000860805
8 *9486:I *9436:CLK 3.73261e-05
9 *9486:I *473:24 0.000509988
10 *9486:I *610:14 0.000775602
*RES
1 tl_i[16] *9486:I 37.264 
*END

*D_NET *31 0.00707766
*CONN
*P tl_i[17] I
*I *9488:I I *D gf180mcu_fd_sc_mcu7t5v0__dlyd_1
*CAP
1 tl_i[17] 0.00227619
2 *9488:I 0.00227619
3 *9488:I tl_o[48] 0
4 *9488:I *9219:A2 3.57634e-06
5 *9488:I *9499:I 0.00012244
6 *9488:I *9526:I 3.64472e-05
7 *9488:I *9576:I 0.000449906
8 *9488:I *9581:I 1.12609e-05
9 *9488:I *484:22 2.64063e-05
10 *9478:I *9488:I 4.28314e-05
11 *9498:I *9488:I 0.00183241
*RES
1 tl_i[17] *9488:I 35.704 
*END

*D_NET *32 0.00391828
*CONN
*P tl_i[18] I
*I *9489:I I *D gf180mcu_fd_sc_mcu7t5v0__dlyd_1
*CAP
1 tl_i[18] 0.000483203
2 *9489:I 0.000483203
3 *9489:I tl_o[1] 0.00111802
4 *9489:I tl_o[52] 0.00170702
5 *9489:I *9262:B 2.81522e-06
6 *9485:I *9489:I 0.00012402
*RES
1 tl_i[18] *9489:I 14.64 
*END

*D_NET *44 0.00255919
*CONN
*P tl_i[29] I
*I *9490:I I *D gf180mcu_fd_sc_mcu7t5v0__dlyd_1
*CAP
1 tl_i[29] 0.0012796
2 *9490:I 0.0012796
*RES
1 tl_i[29] *9490:I 14.432 
*END

*D_NET *46 0.00233243
*CONN
*P tl_i[30] I
*I *9491:I I *D gf180mcu_fd_sc_mcu7t5v0__dlyd_1
*CAP
1 tl_i[30] 0.00116622
2 *9491:I 0.00116622
*RES
1 tl_i[30] *9491:I 13.808 
*END

*D_NET *47 0.00389039
*CONN
*P tl_i[31] I
*I *9492:I I *D gf180mcu_fd_sc_mcu7t5v0__dlyd_1
*CAP
1 tl_i[31] 0.00183957
2 *9492:I 0.00183957
3 *9492:I *9274:A1 0.000211253
*RES
1 tl_i[31] *9492:I 28.84 
*END

*D_NET *48 0.00485292
*CONN
*P tl_i[32] I
*I *9493:I I *D gf180mcu_fd_sc_mcu7t5v0__dlyd_1
*CAP
1 tl_i[32] 0.00169564
2 *9493:I 0.00169564
3 *9493:I *410:18 0.00146164
*RES
1 tl_i[32] *9493:I 28.84 
*END

*D_NET *49 0.00258324
*CONN
*P tl_i[33] I
*I *9494:I I *D gf180mcu_fd_sc_mcu7t5v0__dlyd_1
*CAP
1 tl_i[33] 0.00129162
2 *9494:I 0.00129162
*RES
1 tl_i[33] *9494:I 14.536 
*END

*D_NET *50 0.00346425
*CONN
*P tl_i[34] I
*I *9495:I I *D gf180mcu_fd_sc_mcu7t5v0__dlyd_1
*CAP
1 tl_i[34] 0.00156922
2 *9495:I 0.00156922
3 *9495:I *9496:I 0.000325803
4 *9495:I *444:31 0
*RES
1 tl_i[34] *9495:I 26.76 
*END

*D_NET *51 0.00688063
*CONN
*P tl_i[35] I
*I *9496:I I *D gf180mcu_fd_sc_mcu7t5v0__dlyd_1
*CAP
1 tl_i[35] 0.00164944
2 *9496:I 0.00164944
3 *9496:I tl_o[2] 0.00155133
4 *9496:I *9217:A1 0
5 *9496:I *9220:A1 0.000936893
6 *9496:I *9280:A1 0.000135147
7 *9496:I *9341:I0 0.000345561
8 *9496:I *9380:I1 0
9 *9496:I *444:31 0.000160181
10 *9496:I *449:16 8.65343e-05
11 *9483:I *9496:I 4.03094e-05
12 *9495:I *9496:I 0.000325803
*RES
1 tl_i[35] *9496:I 31.024 
*END

*D_NET *52 0.0107766
*CONN
*P tl_i[36] I
*I *9497:I I *D gf180mcu_fd_sc_mcu7t5v0__dlyd_1
*CAP
1 tl_i[36] 0.000831775
2 *9497:I 0.000831775
3 *9497:I tl_o[22] 0.000392145
4 *9497:I tl_o[51] 0.000476153
5 *9497:I tl_o[62] 0.00147718
6 *9497:I *9220:A1 0.00143285
7 *9497:I *9341:S 0
8 *9497:I *9380:I1 0.00310252
9 *9497:I *9383:I1 0.00165153
10 *9497:I *9435:D 0.000500772
11 *9497:I *9594:I 7.9929e-05
*RES
1 tl_i[36] *9497:I 29.984 
*END

*D_NET *53 0.01691
*CONN
*P tl_i[37] I
*I *9499:I I *D gf180mcu_fd_sc_mcu7t5v0__dlyd_1
*CAP
1 tl_i[37] 0.00304077
2 *9499:I 0.00304077
3 *9499:I tl_o[25] 0.000235972
4 *9499:I tl_o[6] 0
5 *9499:I *9219:A2 0.000103788
6 *9499:I *9248:A2 0.00135255
7 *9499:I *9357:I0 0
8 *9499:I *9382:I1 0.000100372
9 *9499:I *9438:D 0.000287319
10 *9499:I *9526:I 0.00124976
11 *9499:I *9581:I 0.00143432
12 *9499:I *9599:I 0
13 *9499:I *412:64 0.0050354
14 *9499:I *412:79 9.5997e-05
15 *9499:I *419:14 0
16 *9499:I *419:27 0
17 *9499:I *445:14 0.00014159
18 *9499:I *445:20 0.000331934
19 *9499:I *512:16 4.99626e-05
20 *9499:I *610:14 1.81425e-05
21 *9488:I *9499:I 0.00012244
22 *4:25 *9499:I 0.000268917
*RES
1 tl_i[37] *9499:I 49.12 
*END

*D_NET *54 0.0046823
*CONN
*P tl_i[38] I
*I *9500:I I *D gf180mcu_fd_sc_mcu7t5v0__dlyd_1
*CAP
1 tl_i[38] 0.00120433
2 *9500:I 0.00120433
3 *9500:I tl_o[41] 0.000315664
4 *9500:I *9357:I0 0.000221978
5 *9500:I *9357:S 0.001736
*RES
1 tl_i[38] *9500:I 17.864 
*END

*D_NET *55 0.00381056
*CONN
*P tl_i[39] I
*I *9501:I I *D gf180mcu_fd_sc_mcu7t5v0__dlyd_1
*CAP
1 tl_i[39] 0.00124067
2 *9501:I 0.00124067
3 *9501:I tl_o[12] 0.000390307
4 *9501:I tl_o[41] 0.00052276
5 *9501:I tl_o[63] 0.000247057
6 *9501:I *380:8 0.000169099
*RES
1 tl_i[39] *9501:I 26.24 
*END

*D_NET *57 0.00324931
*CONN
*P tl_i[40] I
*I *9502:I I *D gf180mcu_fd_sc_mcu7t5v0__dlyd_1
*CAP
1 tl_i[40] 0.00154775
2 *9502:I 0.00154775
3 *9502:I *419:27 0.000153809
*RES
1 tl_i[40] *9502:I 26.76 
*END

*D_NET *58 0.00347806
*CONN
*P tl_i[41] I
*I *9503:I I *D gf180mcu_fd_sc_mcu7t5v0__dlyd_1
*CAP
1 tl_i[41] 0.00164612
2 *9503:I 0.00164612
3 *9503:I *447:45 0.000185815
*RES
1 tl_i[41] *9503:I 27.8 
*END

*D_NET *59 0.00591609
*CONN
*P tl_i[42] I
*I *9504:I I *D gf180mcu_fd_sc_mcu7t5v0__dlyd_1
*CAP
1 tl_i[42] 0.00169053
2 *9504:I 0.00169053
3 *9504:I *9289:A1 1.84122e-05
4 *9504:I *9505:I 0
5 *9504:I *447:45 0.00251662
*RES
1 tl_i[42] *9504:I 29.256 
*END

*D_NET *60 0.00290169
*CONN
*P tl_i[43] I
*I *9505:I I *D gf180mcu_fd_sc_mcu7t5v0__dlyd_1
*CAP
1 tl_i[43] 0.00145084
2 *9505:I 0.00145084
3 *9504:I *9505:I 0
*RES
1 tl_i[43] *9505:I 24.992 
*END

*D_NET *61 0.00350475
*CONN
*P tl_i[44] I
*I *9506:I I *D gf180mcu_fd_sc_mcu7t5v0__dlyd_1
*CAP
1 tl_i[44] 0.00175237
2 *9506:I 0.00175237
*RES
1 tl_i[44] *9506:I 27.696 
*END

*D_NET *62 0.00427016
*CONN
*P tl_i[45] I
*I *9507:I I *D gf180mcu_fd_sc_mcu7t5v0__dlyd_1
*CAP
1 tl_i[45] 0.00106865
2 *9507:I 0.00106865
3 *9507:I *9512:I 0.00213287
*RES
1 tl_i[45] *9507:I 19.764 
*END

*D_NET *63 0.00117199
*CONN
*P tl_i[46] I
*I *9508:I I *D gf180mcu_fd_sc_mcu7t5v0__dlyd_1
*CAP
1 tl_i[46] 0.00023766
2 *9508:I 0.00023766
3 *9508:I *9510:I 0.000583651
4 *9508:I *9511:I 0.000113016
*RES
1 tl_i[46] *9508:I 12.692 
*END

*D_NET *64 0.00249916
*CONN
*P tl_i[47] I
*I *9510:I I *D gf180mcu_fd_sc_mcu7t5v0__dlyd_1
*CAP
1 tl_i[47] 0.000298619
2 *9510:I 0.000298619
3 *9510:I *9511:I 0.00074656
4 *9510:I *9512:I 0.000571709
5 *9508:I *9510:I 0.000583651
*RES
1 tl_i[47] *9510:I 14.772 
*END

*D_NET *65 0.00275081
*CONN
*P tl_i[48] I
*I *9511:I I *D gf180mcu_fd_sc_mcu7t5v0__dlyd_1
*CAP
1 tl_i[48] 0.000641442
2 *9511:I 0.000641442
3 *9511:I *9512:I 0.000608347
4 *9508:I *9511:I 0.000113016
5 *9510:I *9511:I 0.00074656
*RES
1 tl_i[48] *9511:I 16.644 
*END

*D_NET *66 0.00401914
*CONN
*P tl_i[49] I
*I *9512:I I *D gf180mcu_fd_sc_mcu7t5v0__dlyd_1
*CAP
1 tl_i[49] 0.00035311
2 *9512:I 0.00035311
3 *9507:I *9512:I 0.00213287
4 *9510:I *9512:I 0.000571709
5 *9511:I *9512:I 0.000608347
*RES
1 tl_i[49] *9512:I 17.06 
*END

*D_NET *68 0.00425885
*CONN
*P tl_i[50] I
*I *9513:I I *D gf180mcu_fd_sc_mcu7t5v0__dlyd_1
*CAP
1 tl_i[50] 0.00150074
2 *9513:I 0.00150074
3 *9513:I tl_o[38] 0.00122277
4 *9513:I *9514:I 3.4596e-05
*RES
1 tl_i[50] *9513:I 28.112 
*END

*D_NET *69 0.00263047
*CONN
*P tl_i[51] I
*I *9514:I I *D gf180mcu_fd_sc_mcu7t5v0__dlyd_1
*CAP
1 tl_i[51] 0.00129794
2 *9514:I 0.00129794
3 *9513:I *9514:I 3.4596e-05
*RES
1 tl_i[51] *9514:I 14.12 
*END

*D_NET *70 0.00233243
*CONN
*P tl_i[52] I
*I *9515:I I *D gf180mcu_fd_sc_mcu7t5v0__dlyd_1
*CAP
1 tl_i[52] 0.00116622
2 *9515:I 0.00116622
*RES
1 tl_i[52] *9515:I 13.808 
*END

*D_NET *71 0.00355295
*CONN
*P tl_i[53] I
*I *9516:I I *D gf180mcu_fd_sc_mcu7t5v0__dlyd_1
*CAP
1 tl_i[53] 0.00175791
2 *9516:I 0.00175791
3 *9516:I *502:10 3.71243e-05
*RES
1 tl_i[53] *9516:I 28.216 
*END

*D_NET *72 0.00504807
*CONN
*P tl_i[54] I
*I *9517:I I *D gf180mcu_fd_sc_mcu7t5v0__dlyd_1
*CAP
1 tl_i[54] 0.00188555
2 *9517:I 0.00188555
3 *9517:I *9518:I 0.00127697
*RES
1 tl_i[54] *9517:I 28.528 
*END

*D_NET *73 0.00546507
*CONN
*P tl_i[55] I
*I *9518:I I *D gf180mcu_fd_sc_mcu7t5v0__dlyd_1
*CAP
1 tl_i[55] 0.00209405
2 *9518:I 0.00209405
3 *9517:I *9518:I 0.00127697
*RES
1 tl_i[55] *9518:I 31.232 
*END

*D_NET *74 0.00290353
*CONN
*P tl_i[56] I
*I *9519:I I *D gf180mcu_fd_sc_mcu7t5v0__dlyd_1
*CAP
1 tl_i[56] 0.00098295
2 *9519:I 0.00098295
3 *9519:I *9521:I 0.000343551
4 *9519:I *9524:I 0.000594079
*RES
1 tl_i[56] *9519:I 18.7834 
*END

*D_NET *75 0.00226897
*CONN
*P tl_i[57] I
*I *9521:I I *D gf180mcu_fd_sc_mcu7t5v0__dlyd_1
*CAP
1 tl_i[57] 0.0003562
2 *9521:I 0.0003562
3 *9521:I *9522:I 0.000610129
4 *9521:I *9524:I 0.000602892
5 *9519:I *9521:I 0.000343551
*RES
1 tl_i[57] *9521:I 16.5994 
*END

*D_NET *76 0.00247319
*CONN
*P tl_i[58] I
*I *9522:I I *D gf180mcu_fd_sc_mcu7t5v0__dlyd_1
*CAP
1 tl_i[58] 0.000344027
2 *9522:I 0.000344027
3 *9522:I *9523:I 0.000594079
4 *9522:I *9524:I 0.000580926
5 *9521:I *9522:I 0.000610129
*RES
1 tl_i[58] *9522:I 15.0394 
*END

*D_NET *77 0.00111896
*CONN
*P tl_i[59] I
*I *9523:I I *D gf180mcu_fd_sc_mcu7t5v0__dlyd_1
*CAP
1 tl_i[59] 0.000262441
2 *9523:I 0.000262441
3 *9522:I *9523:I 0.000594079
*RES
1 tl_i[59] *9523:I 12.7514 
*END

*D_NET *79 0.00294653
*CONN
*P tl_i[60] I
*I *9524:I I *D gf180mcu_fd_sc_mcu7t5v0__dlyd_1
*CAP
1 tl_i[60] 0.000584315
2 *9524:I 0.000584315
3 *9519:I *9524:I 0.000594079
4 *9521:I *9524:I 0.000602892
5 *9522:I *9524:I 0.000580926
*RES
1 tl_i[60] *9524:I 16.9114 
*END

*D_NET *80 0.01513
*CONN
*P tl_i[61] I
*I *9525:I I *D gf180mcu_fd_sc_mcu7t5v0__dlyd_1
*CAP
1 tl_i[61] 0.00121001
2 *9525:I 0.00121001
3 *9525:I tl_o[8] 0.00394146
4 *9525:I *9257:A1 0.000674193
5 *9525:I *9257:B1 0.00177141
6 *9525:I *9257:B2 0.000775218
7 *9525:I *9258:A1 0.00103795
8 *9525:I *9259:A2 0.000392823
9 *9525:I *9260:B 0.00111945
10 *9525:I *9537:I 0.000742714
11 *9525:I *9538:I 2.8021e-05
12 *9525:I *405:25 0.000212638
13 *9525:I *405:31 0.000538382
14 *9525:I *412:10 0.000133934
15 *9525:I *512:34 0.000337818
16 *9525:I *514:14 0.00063651
17 *9525:I *514:21 0.000367484
*RES
1 tl_i[61] *9525:I 37.68 
*END

*D_NET *81 0.0148376
*CONN
*P tl_i[62] I
*I *9526:I I *D gf180mcu_fd_sc_mcu7t5v0__dlyd_1
*CAP
1 tl_i[62] 0.0017387
2 *9526:I 0.0017387
3 *9526:I tl_o[64] 0.00122679
4 *9526:I tl_o[6] 0.000153986
5 *9526:I *9221:A1 2.54037e-05
6 *9526:I *9528:I 0.000244915
7 *9526:I *393:14 0.000103624
8 *9526:I *412:43 0.000106581
9 *9526:I *412:64 0.00272678
10 *9526:I *512:16 0.00344026
11 *9526:I *543:16 0.00158085
12 *9478:I *9526:I 0.000464762
13 *9488:I *9526:I 3.64472e-05
14 *9499:I *9526:I 0.00124976
*RES
1 tl_i[62] *9526:I 41.008 
*END

*D_NET *82 0.012383
*CONN
*P tl_i[63] I
*I *9527:I I *D gf180mcu_fd_sc_mcu7t5v0__dlyd_1
*CAP
1 tl_i[63] 0.00195448
2 *9527:I 0.00195448
3 *9527:I tl_o[0] 0.00064185
4 *9527:I tl_o[5] 0
5 *9527:I tl_o[60] 0.00586003
6 *9527:I tl_o[62] 0
7 *9527:I *9381:I0 0.00108073
8 *9527:I *9534:I 0
9 *9527:I *9535:I 1.75521e-05
10 *9527:I *9538:I 0.00016428
11 *9484:I *9527:I 0.000247534
12 *9:23 *9527:I 0.000462051
*RES
1 tl_i[63] *9527:I 38.72 
*END

*D_NET *83 0.0170745
*CONN
*P tl_i[64] I
*I *9528:I I *D gf180mcu_fd_sc_mcu7t5v0__dlyd_1
*CAP
1 tl_i[64] 0.0010897
2 *9528:I 0.0010897
3 *9528:I tl_o[53] 0.00222753
4 *9528:I tl_o[56] 0.00281648
5 *9528:I tl_o[6] 0.00133695
6 *9528:I *9436:CLK 5.63044e-06
7 *9528:I *9576:I 0.00052387
8 *9528:I *9599:I 0.00103383
9 *9528:I *9613:I 0.000415478
10 *9528:I *475:16 0.000355286
11 *9520:I *9528:I 0.0059351
12 *9526:I *9528:I 0.000244915
*RES
1 tl_i[64] *9528:I 41.632 
*END

*D_NET *84 0.00948219
*CONN
*P tl_i[65] I
*I *9529:I I *D gf180mcu_fd_sc_mcu7t5v0__dlyd_1
*CAP
1 tl_i[65] 0.00169715
2 *9529:I 0.00169715
3 *9529:I tl_o[14] 0.000131807
4 *9529:I tl_o[20] 3.07355e-06
5 *9529:I *9257:B1 7.4839e-05
6 *9529:I *9257:B2 0.000122244
7 *9529:I *9258:A1 2.34005e-05
8 *9529:I *9258:B1 0.000153083
9 *9529:I *9260:A2 0.000716307
10 *9529:I *9261:A1 0.00179018
11 *9529:I *9535:I 0.0007038
12 *9529:I *9543:I 0.000119928
13 *9480:I *9529:I 0.00148286
14 *3:36 *9529:I 0.000766371
*RES
1 tl_i[65] *9529:I 25.456 
*END

*D_NET *85 0.00768027
*CONN
*P tl_i[66] I
*I *9530:I I *D gf180mcu_fd_sc_mcu7t5v0__dlyd_1
*CAP
1 tl_i[66] 0.00160127
2 *9530:I 0.00160127
3 *9530:I tl_o[14] 3.3238e-05
4 *9530:I tl_o[20] 3.3238e-05
5 *9530:I tl_o[21] 0.000277123
6 *9530:I tl_o[51] 0.00191364
7 *9530:I tl_o[5] 0.000146998
8 *9484:I *9530:I 0.000956357
9 *3:36 *9530:I 0.000376746
10 *9:23 *9530:I 0.000740396
*RES
1 tl_i[66] *9530:I 30.712 
*END

*D_NET *86 0.00838231
*CONN
*P tl_i[67] I
*I *9532:I I *D gf180mcu_fd_sc_mcu7t5v0__dlyd_1
*CAP
1 tl_i[67] 0.001031
2 *9532:I 0.001031
3 *9532:I *9379:I0 4.07424e-05
4 *9532:I *9379:I1 0.00265587
5 *9532:I *9432:D 0.000403069
6 *9532:I *9474:I 0.000458456
7 *9532:I *9536:I 0.0017018
8 *9532:I *9543:I 0.000917357
9 *9532:I *514:14 0.000106876
10 *9479:I *9532:I 3.6143e-05
*RES
1 tl_i[67] *9532:I 30.712 
*END

*D_NET *87 0.00767708
*CONN
*P tl_i[68] I
*I *9533:I I *D gf180mcu_fd_sc_mcu7t5v0__dlyd_1
*CAP
1 tl_i[68] 0.000719697
2 *9533:I 0.000719697
3 *9533:I tl_o[10] 0.00140407
4 *9533:I tl_o[20] 0.00010481
5 *9533:I tl_o[26] 5.63044e-06
6 *9533:I tl_o[4] 0.00126327
7 *9533:I tl_o[54] 0.00169667
8 *9533:I *9536:I 0.000465893
9 *9533:I *380:63 0.00102558
10 *9480:I *9533:I 0.000271764
*RES
1 tl_i[68] *9533:I 26.864 
*END

*D_NET *88 0.0126807
*CONN
*P tl_i[69] I
*I *9534:I I *D gf180mcu_fd_sc_mcu7t5v0__dlyd_1
*CAP
1 tl_i[69] 0.00130811
2 *9534:I 0.00130811
3 *9534:I tl_o[21] 0.00056284
4 *9534:I tl_o[22] 0.00239328
5 *9534:I tl_o[5] 0.000119606
6 *9534:I tl_o[60] 0.000346232
7 *9534:I tl_o[62] 0.00318827
8 *9534:I *9538:I 0.000103788
9 *9534:I *9539:I 0.000346232
10 *9484:I *9534:I 2.32102e-05
11 *9527:I *9534:I 0
12 *9:23 *9534:I 0.00298099
*RES
1 tl_i[69] *9534:I 34.768 
*END

*D_NET *90 0.0106687
*CONN
*P tl_i[70] I
*I *9535:I I *D gf180mcu_fd_sc_mcu7t5v0__dlyd_1
*CAP
1 tl_i[70] 0.00203585
2 *9535:I 0.00203585
3 *9535:I tl_o[3] 0.000316064
4 *9535:I tl_o[51] 0.0022779
5 *9535:I tl_o[5] 2.6732e-05
6 *9535:I tl_o[60] 8.95216e-05
7 *9535:I *9258:A2 1.39778e-05
8 *9535:I *9261:A2 6.35093e-06
9 *9535:I *9261:A3 0.000118583
10 *9535:I *9380:I1 0.00012019
11 *9535:I *9380:S 5.38494e-05
12 *9535:I *9437:D 0.000137399
13 *9535:I *9437:CLK 0.00040061
14 *9535:I *9537:I 0.000877915
15 *9535:I *422:20 0.000142069
16 *9535:I *516:10 6.98206e-05
17 *9480:I *9535:I 0.00115713
18 *9527:I *9535:I 1.75521e-05
19 *9529:I *9535:I 0.0007038
20 *9542:I *9535:I 6.75785e-05
*RES
1 tl_i[70] *9535:I 36.848 
*END

*D_NET *91 0.0110504
*CONN
*P tl_i[71] I
*I *9536:I I *D gf180mcu_fd_sc_mcu7t5v0__dlyd_1
*CAP
1 tl_i[71] 0.00189993
2 *9536:I 0.00189993
3 *9536:I tl_o[26] 7.76057e-05
4 *9536:I tl_o[49] 0.000727418
5 *9536:I *9255:A2 0.00151821
6 *9536:I *9378:I0 0.000132389
7 *9536:I *9378:I1 0.000802537
8 *9536:I *9379:I0 0.000193849
9 *9536:I *9432:D 0.000403069
10 *9536:I *9540:I 7.64421e-05
11 *9536:I *420:14 2.77933e-05
12 *9536:I *484:22 0.000104313
13 *9536:I *514:14 0.000768985
14 *9532:I *9536:I 0.0017018
15 *9533:I *9536:I 0.000465893
16 *9544:I *9536:I 0.000250228
*RES
1 tl_i[71] *9536:I 37.68 
*END

*D_NET *92 0.0123977
*CONN
*P tl_i[72] I
*I *9537:I I *D gf180mcu_fd_sc_mcu7t5v0__dlyd_1
*CAP
1 tl_i[72] 0.00200146
2 *9537:I 0.00200146
3 *9537:I tl_o[0] 0.000235549
4 *9537:I tl_o[3] 2.63301e-05
5 *9537:I *9258:A2 1.73875e-05
6 *9537:I *9258:B2 7.13312e-06
7 *9537:I *9261:A3 1.23478e-05
8 *9537:I *9345:I1 0.00109255
9 *9537:I *9395:A2 0.000483931
10 *9537:I *9395:B 0.000221001
11 *9537:I *9538:I 0.000868179
12 *9537:I *9539:I 0.000608992
13 *9537:I *9592:I 0.000341493
14 *9537:I *9595:I 0.000121033
15 *9537:I *416:14 2.11015e-05
16 *9537:I *420:14 0.000131787
17 *9537:I *441:57 0.00258535
18 *9525:I *9537:I 0.000742714
19 *9535:I *9537:I 0.000877915
*RES
1 tl_i[72] *9537:I 39.136 
*END

*D_NET *93 0.00862411
*CONN
*P tl_i[73] I
*I *9538:I I *D gf180mcu_fd_sc_mcu7t5v0__dlyd_1
*CAP
1 tl_i[73] 0.00174478
2 *9538:I 0.00174478
3 *9538:I tl_o[0] 4.55126e-05
4 *9538:I *9258:B2 3.55699e-06
5 *9538:I *9259:B1 0.000188403
6 *9538:I *9380:I1 0
7 *9538:I *9380:S 0
8 *9538:I *9434:D 0.000141549
9 *9538:I *9437:CLK 8.80767e-05
10 *9538:I *9593:I 0.000654114
11 *9538:I *416:14 0.00155718
12 *9538:I *422:31 0.00030966
13 *9538:I *513:20 0
14 *9538:I *516:48 0.000734689
15 *9484:I *9538:I 0.000247534
16 *9525:I *9538:I 2.8021e-05
17 *9527:I *9538:I 0.00016428
18 *9534:I *9538:I 0.000103788
19 *9537:I *9538:I 0.000868179
*RES
1 tl_i[73] *9538:I 33.936 
*END

*D_NET *94 0.0103737
*CONN
*P tl_i[74] I
*I *9539:I I *D gf180mcu_fd_sc_mcu7t5v0__dlyd_1
*CAP
1 tl_i[74] 0.00176081
2 *9539:I 0.00176081
3 *9539:I tl_o[0] 3.69286e-05
4 *9539:I tl_o[5] 0.000378402
5 *9539:I tl_o[60] 0.000127145
6 *9539:I tl_o[62] 0.000367706
7 *9539:I *9226:A1 0.000757702
8 *9539:I *9226:A2 0.000565782
9 *9539:I *9380:I0 0.000203364
10 *9539:I *9474:I 0.000184043
11 *9539:I *393:14 0.000641988
12 *9539:I *408:51 2.04184e-05
13 *9539:I *416:14 0.00030364
14 *9539:I *420:14 6.57935e-06
15 *9539:I *422:85 9.73706e-05
16 *9484:I *9539:I 0.00220041
17 *9534:I *9539:I 0.000346232
18 *9537:I *9539:I 0.000608992
19 *9542:I *9539:I 5.35362e-06
*RES
1 tl_i[74] *9539:I 35.184 
*END

*D_NET *119 0.0105217
*CONN
*P tl_i[97] I
*I *9540:I I *D gf180mcu_fd_sc_mcu7t5v0__dlyd_1
*CAP
1 tl_i[97] 0.00168406
2 *9540:I 0.00168406
3 *9540:I *9248:A3 2.61971e-06
4 *9540:I *9378:I0 0.00187349
5 *9540:I *9384:I0 0.000356674
6 *9540:I *412:64 0.000252201
7 *9540:I *421:41 6.47035e-05
8 *9540:I *512:16 0.000657966
9 *9540:I *514:14 0.000132872
10 *9540:I *613:22 0.000131527
11 *9477:I *9540:I 0.00180622
12 *9536:I *9540:I 7.64421e-05
13 *9544:I *9540:I 0.00179882
*RES
1 tl_i[97] *9540:I 36.744 
*END

*D_NET *120 0.00347359
*CONN
*P tl_i[98] I
*I *9541:I I *D gf180mcu_fd_sc_mcu7t5v0__dlyd_1
*CAP
1 tl_i[98] 0.000259985
2 *9541:I 0.000259985
3 *9541:I tl_o[26] 0.00174296
4 *9541:I tl_o[52] 0.00107183
5 *9541:I tl_o[54] 0.000138826
*RES
1 tl_i[98] *9541:I 12.664 
*END

*D_NET *121 0.00529323
*CONN
*P tl_i[99] I
*I *9543:I I *D gf180mcu_fd_sc_mcu7t5v0__dlyd_1
*CAP
1 tl_i[99] 0.00129689
2 *9543:I 0.00129689
3 *9543:I *9258:B2 5.35527e-06
4 *9543:I *9261:A2 0.000104634
5 *9543:I *9439:CLK 0.000114058
6 *9543:I *128:26 6.75855e-05
7 *9543:I *380:63 6.96556e-05
8 *9479:I *9543:I 0.000917357
9 *9529:I *9543:I 0.000119928
10 *9532:I *9543:I 0.000917357
11 *3:36 *9543:I 0.000383519
*RES
1 tl_i[99] *9543:I 35.968 
*END

*D_NET *123 0.00908543
*CONN
*P tl_o[0] O
*I *9586:Z O *D gf180mcu_fd_sc_mcu7t5v0__dlyd_1
*CAP
1 tl_o[0] 0.00175174
2 *9586:Z 0.00175174
3 tl_o[0] tl_o[60] 0.000663324
4 tl_o[0] *9130:I 0
5 tl_o[0] *9226:A2 0.00187063
6 tl_o[0] *9259:B1 1.23682e-05
7 tl_o[0] *9259:B2 0.000258777
8 tl_o[0] *9345:I1 0.000141544
9 tl_o[0] *9395:B 0.000170179
10 tl_o[0] *9553:I 1.26329e-05
11 tl_o[0] *9592:I 5.59003e-05
12 tl_o[0] *408:14 0.000329258
13 tl_o[0] *408:25 0.000605614
14 tl_o[0] *408:51 3.83774e-05
15 tl_o[0] *416:14 0.000203586
16 tl_o[0] *420:14 0.000232419
17 tl_o[0] *441:34 2.7516e-05
18 *9527:I tl_o[0] 0.00064185
19 *9537:I tl_o[0] 0.000235549
20 *9538:I tl_o[0] 4.55126e-05
21 *9539:I tl_o[0] 3.69286e-05
*RES
1 *9586:Z tl_o[0] 33.52 
*END

*D_NET *124 0.00841162
*CONN
*P tl_o[10] O
*I *9620:ZN O *D gf180mcu_fd_sc_mcu7t5v0__tiel
*CAP
1 tl_o[10] 0.00243771
2 *9620:ZN 0.00243771
3 tl_o[10] tl_o[26] 0.000444419
4 *9481:I tl_o[10] 0.00168771
5 *9533:I tl_o[10] 0.00140407
*RES
1 *9620:ZN tl_o[10] 43.56 
*END

*D_NET *125 0.00214369
*CONN
*P tl_o[11] O
*I *9621:ZN O *D gf180mcu_fd_sc_mcu7t5v0__tiel
*CAP
1 tl_o[11] 0.000615612
2 *9621:ZN 0.000615612
3 tl_o[11] tl_o[59] 0.000912464
*RES
1 *9621:ZN tl_o[11] 12.04 
*END

*D_NET *126 0.0167455
*CONN
*P tl_o[12] O
*I *9622:ZN O *D gf180mcu_fd_sc_mcu7t5v0__tiel
*CAP
1 tl_o[12] 0.00134256
2 *9622:ZN 0.00134256
3 tl_o[12] tl_o[13] 6.12849e-05
4 tl_o[12] tl_o[24] 0.000374241
5 tl_o[12] tl_o[48] 4.84332e-05
6 tl_o[12] tl_o[63] 0.0103323
7 tl_o[12] tl_o[65] 0.00082047
8 tl_o[12] *9361:I0 5.05096e-05
9 *9487:I tl_o[12] 0.00189067
10 *9501:I tl_o[12] 0.000390307
11 *9509:I tl_o[12] 9.21976e-05
*RES
1 *9622:ZN tl_o[12] 47.456 
*END

*D_NET *127 0.0133512
*CONN
*P tl_o[13] O
*I *9623:ZN O *D gf180mcu_fd_sc_mcu7t5v0__tiel
*CAP
1 tl_o[13] 0.00167973
2 *9623:ZN 0.00167973
3 tl_o[13] tl_o[41] 0.00138634
4 tl_o[13] tl_o[63] 0.00125186
5 tl_o[13] tl_o[65] 1.46269e-05
6 tl_o[13] *9216:A1 1.23478e-05
7 tl_o[13] *9219:A2 0.0006747
8 tl_o[13] *9222:A1 7.12475e-05
9 tl_o[13] *9357:I1 0.000219402
10 tl_o[13] *9361:I0 0.00100878
11 tl_o[13] *9581:I 3.646e-05
12 tl_o[13] *375:94 0
13 tl_o[13] *448:20 0.000114671
14 tl_o[13] *543:16 0.0012269
15 tl_o[13] *608:10 0.000235458
16 tl_o[12] tl_o[13] 6.12849e-05
17 *9486:I tl_o[13] 0.00275223
18 *9520:I tl_o[13] 0.000925392
*RES
1 *9623:ZN tl_o[13] 47.768 
*END

*D_NET *128 0.01458
*CONN
*P tl_o[14] O
*I *9624:ZN O *D gf180mcu_fd_sc_mcu7t5v0__tiel
*CAP
1 tl_o[14] 0.000309595
2 *9624:ZN 0.00382303
3 *128:26 0.00413262
4 tl_o[14] tl_o[20] 0.00212586
5 tl_o[14] *9258:A1 0.000175915
6 *128:26 *9231:A1 0.000428493
7 *128:26 *9231:A2 0.00011543
8 *128:26 *9236:A2 0.00065147
9 *128:26 *9241:B1 0.000355119
10 *128:26 *9245:B 2.24654e-05
11 *128:26 *9257:B1 0.000106582
12 *128:26 *9258:A1 0.000361216
13 *128:26 *9258:B2 3.23531e-05
14 *128:26 *9261:A2 4.17612e-05
15 *128:26 *9311:A2 1.35639e-05
16 *128:26 *9450:CLK 6.00612e-05
17 *128:26 *9470:I 0.000128132
18 *128:26 *9655:I 6.6582e-06
19 *128:26 *365:30 0.000264668
20 *128:26 *369:18 0
21 *128:26 *370:14 2.07819e-06
22 *128:26 *380:207 9.9247e-06
23 *128:26 *399:18 0.000110983
24 *128:26 *438:33 0.000145717
25 *128:26 *449:32 0.000499179
26 *9529:I tl_o[14] 0.000131807
27 *9530:I tl_o[14] 3.3238e-05
28 *9543:I *128:26 6.75855e-05
29 *3:36 tl_o[14] 0.000424522
*RES
1 *9624:ZN *128:26 48.396 
2 *128:26 tl_o[14] 6.916 
*END

*D_NET *129 0.00196198
*CONN
*P tl_o[15] O
*I *9625:ZN O *D gf180mcu_fd_sc_mcu7t5v0__tiel
*CAP
1 tl_o[15] 0.000980991
2 *9625:ZN 0.000980991
*RES
1 *9625:ZN tl_o[15] 12.664 
*END

*D_NET *130 0.00418389
*CONN
*P tl_o[16] O
*I *9587:Z O *D gf180mcu_fd_sc_mcu7t5v0__dlyd_1
*CAP
1 tl_o[16] 0.00128939
2 *9587:Z 0.00128939
3 tl_o[16] tl_o[18] 0.00154911
4 tl_o[16] tl_o[7] 0
5 tl_o[16] *9590:I 5.60123e-05
*RES
1 *9587:Z tl_o[16] 26.032 
*END

*D_NET *131 0.00249523
*CONN
*P tl_o[17] O
*I *9588:Z O *D gf180mcu_fd_sc_mcu7t5v0__dlyd_1
*CAP
1 tl_o[17] 0.00124761
2 *9588:Z 0.00124761
3 tl_o[17] tl_o[19] 0
*RES
1 *9588:Z tl_o[17] 13.808 
*END

*D_NET *132 0.00376515
*CONN
*P tl_o[18] O
*I *9589:Z O *D gf180mcu_fd_sc_mcu7t5v0__dlyd_1
*CAP
1 tl_o[18] 0.00080654
2 *9589:Z 0.00080654
3 tl_o[18] tl_o[19] 0
4 tl_o[18] tl_o[7] 0.000602965
5 tl_o[16] tl_o[18] 0.00154911
*RES
1 *9589:Z tl_o[18] 23.536 
*END

*D_NET *133 0.00322039
*CONN
*P tl_o[19] O
*I *9590:Z O *D gf180mcu_fd_sc_mcu7t5v0__dlyd_1
*CAP
1 tl_o[19] 0.00161019
2 *9590:Z 0.00161019
3 tl_o[17] tl_o[19] 0
4 tl_o[18] tl_o[19] 0
*RES
1 *9590:Z tl_o[19] 26.344 
*END

*D_NET *134 0.00317849
*CONN
*P tl_o[1] O
*I *9591:Z O *D gf180mcu_fd_sc_mcu7t5v0__dlyd_1
*CAP
1 tl_o[1] 0.000275721
2 *9591:Z 0.000275721
3 *9485:I tl_o[1] 0.00150903
4 *9489:I tl_o[1] 0.00111802
*RES
1 *9591:Z tl_o[1] 12.456 
*END

*D_NET *135 0.00841497
*CONN
*P tl_o[20] O
*I *9592:Z O *D gf180mcu_fd_sc_mcu7t5v0__dlyd_1
*CAP
1 tl_o[20] 0.00124821
2 *9592:Z 0.00124821
3 tl_o[20] tl_o[21] 0.000375889
4 tl_o[20] tl_o[54] 0.000284215
5 tl_o[20] *9130:I 0.000387186
6 tl_o[20] *9258:B1 0.00191376
7 tl_o[20] *9258:B2 0.000269899
8 tl_o[20] *9260:A2 3.50983e-05
9 tl_o[20] *248:8 7.992e-05
10 tl_o[20] *380:57 7.78438e-05
11 tl_o[20] *380:63 0.000120822
12 tl_o[20] *405:6 0.000106926
13 tl_o[14] tl_o[20] 0.00212586
14 *9529:I tl_o[20] 3.07355e-06
15 *9530:I tl_o[20] 3.3238e-05
16 *9533:I tl_o[20] 0.00010481
*RES
1 *9592:Z tl_o[20] 22.128 
*END

*D_NET *136 0.00880354
*CONN
*P tl_o[21] O
*I *9593:Z O *D gf180mcu_fd_sc_mcu7t5v0__dlyd_1
*CAP
1 tl_o[21] 0.00077493
2 *9593:Z 0.00077493
3 tl_o[21] tl_o[3] 0.00190318
4 tl_o[21] tl_o[51] 0.00120476
5 tl_o[21] tl_o[54] 0.000375889
6 tl_o[21] tl_o[5] 0.000637212
7 tl_o[20] tl_o[21] 0.000375889
8 *9480:I tl_o[21] 0.000388147
9 *9484:I tl_o[21] 5.91998e-05
10 *9530:I tl_o[21] 0.000277123
11 *9534:I tl_o[21] 0.00056284
12 *9542:I tl_o[21] 0.00140973
13 *3:36 tl_o[21] 5.97039e-05
*RES
1 *9593:Z tl_o[21] 29.36 
*END

*D_NET *137 0.00908351
*CONN
*P tl_o[22] O
*I *9594:Z O *D gf180mcu_fd_sc_mcu7t5v0__dlyd_1
*CAP
1 tl_o[22] 0.0014939
2 *9594:Z 0.0014939
3 tl_o[22] tl_o[51] 0.000104286
4 tl_o[22] tl_o[62] 0.00300937
5 tl_o[22] *9230:A2 4.30877e-05
6 tl_o[22] *405:31 0.000106926
7 tl_o[22] *516:10 3.97735e-05
8 tl_o[22] *517:20 6.84196e-06
9 *9497:I tl_o[22] 0.000392145
10 *9534:I tl_o[22] 0.00239328
*RES
1 *9594:Z tl_o[22] 22.336 
*END

*D_NET *138 0.00748402
*CONN
*P tl_o[23] O
*I *9595:Z O *D gf180mcu_fd_sc_mcu7t5v0__dlyd_1
*CAP
1 tl_o[23] 0.000816407
2 *9595:Z 0.000816407
3 tl_o[23] tl_o[4] 0.0023514
4 tl_o[23] *393:14 5.21131e-05
5 tl_o[23] *420:14 0.000849695
6 *9480:I tl_o[23] 0.000444419
7 *9545:I tl_o[23] 0.00215358
*RES
1 *9595:Z tl_o[23] 28.216 
*END

*D_NET *139 0.013389
*CONN
*P tl_o[24] O
*I *9596:Z O *D gf180mcu_fd_sc_mcu7t5v0__dlyd_1
*CAP
1 tl_o[24] 0.00187463
2 *9596:Z 0.00187463
3 tl_o[24] tl_o[25] 0.000445352
4 tl_o[24] tl_o[65] 1.97265e-05
5 tl_o[24] *9214:A1 0.00199475
6 tl_o[24] *9219:A2 0.000276007
7 tl_o[24] *9221:A1 0.00250681
8 tl_o[24] *9248:A3 4.11879e-05
9 tl_o[24] *9252:A1 0.000572736
10 tl_o[24] *9282:A1 0.000199998
11 tl_o[24] *9387:A1 0.000386417
12 tl_o[24] *9389:S 3.22108e-05
13 tl_o[24] *329:12 0.00155353
14 tl_o[24] *329:26 0.000163312
15 tl_o[24] *375:92 6.61604e-06
16 tl_o[24] *473:24 0.0002458
17 tl_o[24] *594:161 0.000191171
18 tl_o[12] tl_o[24] 0.000374241
19 *9509:I tl_o[24] 8.25927e-05
20 *4:25 tl_o[24] 0.000547318
*RES
1 *9596:Z tl_o[24] 37.784 
*END

*D_NET *140 0.0139608
*CONN
*P tl_o[25] O
*I *9597:Z O *D gf180mcu_fd_sc_mcu7t5v0__dlyd_1
*CAP
1 tl_o[25] 0.00221195
2 *9597:Z 0.00221195
3 tl_o[25] tl_o[58] 0.000635104
4 tl_o[25] tl_o[65] 0.000106476
5 tl_o[25] *9219:A2 0.00026679
6 tl_o[25] *9221:A1 0.00156978
7 tl_o[25] *9252:A2 4.78801e-05
8 tl_o[25] *9255:A1 7.08905e-06
9 tl_o[25] *9255:A2 3.22108e-05
10 tl_o[25] *9263:A2 0.000433343
11 tl_o[25] *9283:A1 0.000585288
12 tl_o[25] *9385:I0 0.000671251
13 tl_o[25] *9442:D 2.22621e-05
14 tl_o[25] *9578:I 0.000666463
15 tl_o[25] *594:161 0.000225767
16 tl_o[25] *613:22 0.000281179
17 tl_o[24] tl_o[25] 0.000445352
18 *9499:I tl_o[25] 0.000235972
19 *4:25 tl_o[25] 0.00330474
*RES
1 *9597:Z tl_o[25] 38.616 
*END

*D_NET *141 0.00592427
*CONN
*P tl_o[26] O
*I *9598:Z O *D gf180mcu_fd_sc_mcu7t5v0__dlyd_1
*CAP
1 tl_o[26] 0.0011983
2 *9598:Z 0.0011983
3 tl_o[26] tl_o[54] 0.000368299
4 tl_o[26] *9215:A1 0.000129103
5 tl_o[26] *9378:I0 0.00013136
6 tl_o[26] *9379:I0 0.000134582
7 tl_o[26] *9468:I 0.000493709
8 tl_o[10] tl_o[26] 0.000444419
9 *9533:I tl_o[26] 5.63044e-06
10 *9536:I tl_o[26] 7.76057e-05
11 *9541:I tl_o[26] 0.00174296
*RES
1 *9598:Z tl_o[26] 19.736 
*END

*D_NET *142 0.0063546
*CONN
*P tl_o[27] O
*I *9599:Z O *D gf180mcu_fd_sc_mcu7t5v0__dlyd_1
*CAP
1 tl_o[27] 0.00106732
2 *9599:Z 0.00106732
3 tl_o[27] tl_o[56] 0.000523411
4 tl_o[27] tl_o[57] 0.00202524
5 tl_o[27] *9591:I 8.8202e-05
6 tl_o[27] *9613:I 0.000121999
7 tl_o[27] *412:31 0.000212704
8 tl_o[27] *484:22 0
9 *9477:I tl_o[27] 0.00099683
10 *9485:I tl_o[27] 0.000251583
*RES
1 *9599:Z tl_o[27] 28.632 
*END

*D_NET *143 0.0036102
*CONN
*P tl_o[28] O
*I *9600:Z O *D gf180mcu_fd_sc_mcu7t5v0__dlyd_1
*CAP
1 tl_o[28] 0.00121084
2 *9600:Z 0.00121084
3 tl_o[28] tl_o[29] 0.000844685
4 tl_o[28] tl_o[30] 9.99061e-05
5 tl_o[28] tl_o[31] 0.000243942
*RES
1 *9600:Z tl_o[28] 24.992 
*END

*D_NET *144 0.00441779
*CONN
*P tl_o[29] O
*I *9601:Z O *D gf180mcu_fd_sc_mcu7t5v0__dlyd_1
*CAP
1 tl_o[29] 0.0012997
2 *9601:Z 0.0012997
3 tl_o[29] tl_o[31] 0.000973698
4 tl_o[28] tl_o[29] 0.000844685
*RES
1 *9601:Z tl_o[29] 25.928 
*END

*D_NET *145 0.00914923
*CONN
*P tl_o[2] O
*I *9615:ZN O *D gf180mcu_fd_sc_mcu7t5v0__tiel
*CAP
1 tl_o[2] 0.00183563
2 *9615:ZN 0.00183563
3 *9483:I tl_o[2] 7.18295e-06
4 *9496:I tl_o[2] 0.00155133
5 *3:14 tl_o[2] 0.00391945
6 *9:23 tl_o[2] 0
*RES
1 *9615:ZN tl_o[2] 42.36 
*END

*D_NET *146 0.002422
*CONN
*P tl_o[30] O
*I *9602:Z O *D gf180mcu_fd_sc_mcu7t5v0__dlyd_1
*CAP
1 tl_o[30] 0.00116105
2 *9602:Z 0.00116105
3 tl_o[28] tl_o[30] 9.99061e-05
*RES
1 *9602:Z tl_o[30] 13.808 
*END

*D_NET *147 0.00381319
*CONN
*P tl_o[31] O
*I *9603:Z O *D gf180mcu_fd_sc_mcu7t5v0__dlyd_1
*CAP
1 tl_o[31] 0.00129777
2 *9603:Z 0.00129777
3 tl_o[28] tl_o[31] 0.000243942
4 tl_o[29] tl_o[31] 0.000973698
*RES
1 *9603:Z tl_o[31] 16.72 
*END

*D_NET *148 0.00356711
*CONN
*P tl_o[32] O
*I *9604:Z O *D gf180mcu_fd_sc_mcu7t5v0__dlyd_1
*CAP
1 tl_o[32] 0.000957008
2 *9604:Z 0.000957008
3 tl_o[32] tl_o[35] 6.89904e-05
4 tl_o[32] tl_o[36] 0.00158411
*RES
1 *9604:Z tl_o[32] 18.932 
*END

*D_NET *149 0.00110575
*CONN
*P tl_o[33] O
*I *9605:Z O *D gf180mcu_fd_sc_mcu7t5v0__dlyd_1
*CAP
1 tl_o[33] 0.000297509
2 *9605:Z 0.000297509
3 tl_o[33] tl_o[37] 0.000510731
*RES
1 *9605:Z tl_o[33] 12.484 
*END

*D_NET *150 0.00313551
*CONN
*P tl_o[34] O
*I *9606:Z O *D gf180mcu_fd_sc_mcu7t5v0__dlyd_1
*CAP
1 tl_o[34] 0.000392767
2 *9606:Z 0.000392767
3 tl_o[34] tl_o[36] 0.00137494
4 tl_o[34] tl_o[37] 0.000975032
*RES
1 *9606:Z tl_o[34] 16.02 
*END

*D_NET *151 0.0026704
*CONN
*P tl_o[35] O
*I *9607:Z O *D gf180mcu_fd_sc_mcu7t5v0__dlyd_1
*CAP
1 tl_o[35] 0.00126301
2 *9607:Z 0.00126301
3 tl_o[35] tl_o[36] 7.53916e-05
4 tl_o[35] tl_o[37] 0
5 tl_o[35] *549:10 0
6 tl_o[32] tl_o[35] 6.89904e-05
*RES
1 *9607:Z tl_o[35] 19.036 
*END

*D_NET *152 0.0043047
*CONN
*P tl_o[36] O
*I *9608:Z O *D gf180mcu_fd_sc_mcu7t5v0__dlyd_1
*CAP
1 tl_o[36] 0.000635131
2 *9608:Z 0.000635131
3 tl_o[32] tl_o[36] 0.00158411
4 tl_o[34] tl_o[36] 0.00137494
5 tl_o[35] tl_o[36] 7.53916e-05
*RES
1 *9608:Z tl_o[36] 18.412 
*END

*D_NET *153 0.00192608
*CONN
*P tl_o[37] O
*I *9609:Z O *D gf180mcu_fd_sc_mcu7t5v0__dlyd_1
*CAP
1 tl_o[37] 0.000220158
2 *9609:Z 0.000220158
3 tl_o[33] tl_o[37] 0.000510731
4 tl_o[34] tl_o[37] 0.000975032
5 tl_o[35] tl_o[37] 0
*RES
1 *9609:Z tl_o[37] 13.732 
*END

*D_NET *154 0.00351066
*CONN
*P tl_o[38] O
*I *9610:Z O *D gf180mcu_fd_sc_mcu7t5v0__dlyd_1
*CAP
1 tl_o[38] 0.00114395
2 *9610:Z 0.00114395
3 *9513:I tl_o[38] 0.00122277
*RES
1 *9610:Z tl_o[38] 16.2 
*END

*D_NET *155 0.00260768
*CONN
*P tl_o[39] O
*I *9611:Z O *D gf180mcu_fd_sc_mcu7t5v0__dlyd_1
*CAP
1 tl_o[39] 0.00130384
2 *9611:Z 0.00130384
*RES
1 *9611:Z tl_o[39] 14.64 
*END

*D_NET *156 0.0105867
*CONN
*P tl_o[3] O
*I *9612:Z O *D gf180mcu_fd_sc_mcu7t5v0__dlyd_1
*CAP
1 tl_o[3] 0.00320272
2 *9612:Z 0.00320272
3 tl_o[3] tl_o[5] 0.000316064
4 tl_o[3] *9395:B 0.000245642
5 tl_o[21] tl_o[3] 0.00190318
6 *9484:I tl_o[3] 0.000379345
7 *9535:I tl_o[3] 0.000316064
8 *9537:I tl_o[3] 2.63301e-05
9 *9542:I tl_o[3] 0.000838583
10 *3:36 tl_o[3] 0.00015601
*RES
1 *9612:Z tl_o[3] 46.992 
*END

*D_NET *157 0.00706146
*CONN
*P tl_o[40] O
*I *9613:Z O *D gf180mcu_fd_sc_mcu7t5v0__dlyd_1
*CAP
1 tl_o[40] 0.00134055
2 *9613:Z 0.00134055
3 tl_o[40] tl_o[55] 3.24926e-05
4 tl_o[40] *9438:D 0.000589162
5 tl_o[40] *9599:I 0.00240809
6 tl_o[40] *9613:I 0.000284664
7 tl_o[40] *375:94 0.000128746
8 tl_o[40] *610:14 0.000775602
9 *9486:I tl_o[40] 0.000161606
*RES
1 *9613:Z tl_o[40] 28.632 
*END

*D_NET *158 0.00781044
*CONN
*P tl_o[41] O
*I *9614:Z O *D gf180mcu_fd_sc_mcu7t5v0__dlyd_1
*CAP
1 tl_o[41] 0.000814361
2 *9614:Z 0.000814361
3 tl_o[41] tl_o[63] 0.000655643
4 tl_o[41] *380:8 0.00142064
5 tl_o[41] *448:20 0.00188066
6 tl_o[13] tl_o[41] 0.00138634
7 *9500:I tl_o[41] 0.000315664
8 *9501:I tl_o[41] 0.00052276
*RES
1 *9614:Z tl_o[41] 29.152 
*END

*D_NET *159 0.0010796
*CONN
*P tl_o[42] O
*I *9566:Z O *D gf180mcu_fd_sc_mcu7t5v0__dlyd_1
*CAP
1 tl_o[42] 0.00041878
2 *9566:Z 0.00041878
3 tl_o[42] tl_o[46] 0.000242037
*RES
1 *9566:Z tl_o[42] 12.9594 
*END

*D_NET *160 0.00180163
*CONN
*P tl_o[43] O
*I *9567:Z O *D gf180mcu_fd_sc_mcu7t5v0__dlyd_1
*CAP
1 tl_o[43] 0.000524141
2 *9567:Z 0.000524141
3 tl_o[43] tl_o[44] 0.000484699
4 tl_o[43] tl_o[45] 0.000227897
5 tl_o[43] tl_o[46] 4.07478e-05
*RES
1 *9567:Z tl_o[43] 14.7274 
*END

*D_NET *161 0.00210358
*CONN
*P tl_o[44] O
*I *9568:Z O *D gf180mcu_fd_sc_mcu7t5v0__dlyd_1
*CAP
1 tl_o[44] 0.000516754
2 *9568:Z 0.000516754
3 tl_o[44] tl_o[45] 6.42138e-05
4 tl_o[44] tl_o[46] 0.000521159
5 tl_o[43] tl_o[44] 0.000484699
*RES
1 *9568:Z tl_o[44] 15.4554 
*END

*D_NET *162 0.00170737
*CONN
*P tl_o[45] O
*I *9569:Z O *D gf180mcu_fd_sc_mcu7t5v0__dlyd_1
*CAP
1 tl_o[45] 0.000707627
2 *9569:Z 0.000707627
3 tl_o[43] tl_o[45] 0.000227897
4 tl_o[44] tl_o[45] 6.42138e-05
*RES
1 *9569:Z tl_o[45] 15.0394 
*END

*D_NET *163 0.00133284
*CONN
*P tl_o[46] O
*I *9570:Z O *D gf180mcu_fd_sc_mcu7t5v0__dlyd_1
*CAP
1 tl_o[46] 0.000264446
2 *9570:Z 0.000264446
3 tl_o[42] tl_o[46] 0.000242037
4 tl_o[43] tl_o[46] 4.07478e-05
5 tl_o[44] tl_o[46] 0.000521159
*RES
1 *9570:Z tl_o[46] 12.9594 
*END

*D_NET *164 0.00141953
*CONN
*P tl_o[47] O
*I *9571:Z O *D gf180mcu_fd_sc_mcu7t5v0__dlyd_1
*CAP
1 tl_o[47] 0.000709767
2 *9571:Z 0.000709767
*RES
1 *9571:Z tl_o[47] 14.3114 
*END

*D_NET *165 0.00729906
*CONN
*P tl_o[48] O
*I *9626:ZN O *D gf180mcu_fd_sc_mcu7t5v0__tiel
*CAP
1 tl_o[48] 0.00290377
2 *9626:ZN 0.00290377
3 tl_o[12] tl_o[48] 4.84332e-05
4 *9488:I tl_o[48] 0
5 *9498:I tl_o[48] 0.00060159
6 *9509:I tl_o[48] 0.000841484
*RES
1 *9626:ZN tl_o[48] 42.568 
*END

*D_NET *166 0.00900119
*CONN
*P tl_o[49] O
*I *9572:Z O *D gf180mcu_fd_sc_mcu7t5v0__dlyd_1
*CAP
1 tl_o[49] 0.00117726
2 *9572:Z 0.00117726
3 tl_o[49] tl_o[50] 0.000133612
4 tl_o[49] tl_o[56] 0.000477558
5 tl_o[49] *9250:A3 0.00160555
6 tl_o[49] *9474:I 0.000282445
7 tl_o[49] *9639:I 1.73667e-05
8 tl_o[49] *295:20 0.000764486
9 tl_o[49] *484:22 0.000432616
10 *9498:I tl_o[49] 7.70965e-05
11 *9536:I tl_o[49] 0.000727418
12 *9544:I tl_o[49] 0.00212851
*RES
1 *9572:Z tl_o[49] 32.792 
*END

*D_NET *167 0.0163277
*CONN
*P tl_o[4] O
*I *9616:ZN O *D gf180mcu_fd_sc_mcu7t5v0__tiel
*CAP
1 tl_o[4] 0.0021236
2 *9616:ZN 0.0021236
3 tl_o[4] tl_o[54] 0.000458365
4 tl_o[4] *9134:A1 1.65832e-05
5 tl_o[4] *9227:A2 3.18527e-05
6 tl_o[4] *9234:A2 0.000776253
7 tl_o[4] *9236:A2 0.000158763
8 tl_o[4] *9239:B2 0.000371438
9 tl_o[4] *9249:A1 1.47595e-05
10 tl_o[4] *9249:A2 0.000129809
11 tl_o[4] *9450:CLK 0.000112665
12 tl_o[4] *9470:I 1.06979e-05
13 tl_o[4] *369:18 0.00129209
14 tl_o[4] *370:14 0.000112184
15 tl_o[4] *380:57 0.000501312
16 tl_o[4] *380:63 0.000799435
17 tl_o[4] *380:88 0.000191652
18 tl_o[4] *594:26 0.000300057
19 tl_o[4] *594:83 0.000353921
20 tl_o[4] *595:33 0.000443723
21 tl_o[23] tl_o[4] 0.0023514
22 *9480:I tl_o[4] 0.000444419
23 *9533:I tl_o[4] 0.00126327
24 *9545:I tl_o[4] 0.00194589
*RES
1 *9616:ZN tl_o[4] 44.232 
*END

*D_NET *168 0.0117149
*CONN
*P tl_o[50] O
*I *9573:Z O *D gf180mcu_fd_sc_mcu7t5v0__dlyd_1
*CAP
1 tl_o[50] 0.00158256
2 *9573:Z 0.00158256
3 tl_o[50] tl_o[53] 4.91475e-05
4 tl_o[50] tl_o[64] 0.00435467
5 tl_o[50] tl_o[6] 0.00150486
6 tl_o[50] *9235:A1 0.000225746
7 tl_o[50] *9282:A1 4.01384e-05
8 tl_o[50] *9474:I 0.000282445
9 tl_o[50] *9639:I 0.000116063
10 tl_o[50] *399:18 4.82603e-06
11 tl_o[50] *471:10 0.00183824
12 tl_o[49] tl_o[50] 0.000133612
*RES
1 *9573:Z tl_o[50] 35.912 
*END

*D_NET *169 0.0109757
*CONN
*P tl_o[51] O
*I *9574:Z O *D gf180mcu_fd_sc_mcu7t5v0__dlyd_1
*CAP
1 tl_o[51] 0.00104472
2 *9574:Z 0.00104472
3 tl_o[51] tl_o[60] 4.27053e-05
4 tl_o[51] tl_o[62] 0.000683037
5 tl_o[51] *9437:D 9.88907e-05
6 tl_o[51] *9437:CLK 0.000143028
7 tl_o[51] *516:10 0.000485176
8 tl_o[21] tl_o[51] 0.00120476
9 tl_o[22] tl_o[51] 0.000104286
10 *9482:I tl_o[51] 0.00106675
11 *9497:I tl_o[51] 0.000476153
12 *9530:I tl_o[51] 0.00191364
13 *9535:I tl_o[51] 0.0022779
14 *9542:I tl_o[51] 0.000330011
15 *9:23 tl_o[51] 5.99639e-05
*RES
1 *9574:Z tl_o[51] 33.936 
*END

*D_NET *170 0.006177
*CONN
*P tl_o[52] O
*I *9575:Z O *D gf180mcu_fd_sc_mcu7t5v0__dlyd_1
*CAP
1 tl_o[52] 0.00045445
2 *9575:Z 0.00045445
3 tl_o[52] tl_o[54] 0.00169951
4 tl_o[52] *9224:A2 0.000781194
5 tl_o[52] *9262:B 8.5552e-06
6 *9489:I tl_o[52] 0.00170702
7 *9541:I tl_o[52] 0.00107183
*RES
1 *9575:Z tl_o[52] 16.824 
*END

*D_NET *171 0.0119203
*CONN
*P tl_o[53] O
*I *9576:Z O *D gf180mcu_fd_sc_mcu7t5v0__dlyd_1
*CAP
1 tl_o[53] 0.00159249
2 *9576:Z 0.00159249
3 tl_o[53] tl_o[55] 0.000606174
4 tl_o[53] tl_o[58] 0.000264592
5 tl_o[53] tl_o[6] 2.94896e-05
6 tl_o[53] *9247:A1 4.29362e-05
7 tl_o[53] *9250:A3 0.00128854
8 tl_o[53] *9255:A2 5.04911e-05
9 tl_o[53] *9255:B 0.00037585
10 tl_o[53] *9387:A2 2.46957e-05
11 tl_o[53] *9390:S 0.000136444
12 tl_o[53] *9439:D 3.13351e-05
13 tl_o[53] *9572:I 0.00143057
14 tl_o[53] *9580:I 0.000113027
15 tl_o[53] *9581:I 0.000158673
16 tl_o[53] *308:12 2.76472e-05
17 tl_o[53] *329:26 0.00102389
18 tl_o[53] *399:18 0.000394708
19 tl_o[53] *471:10 0.000310544
20 tl_o[53] *475:16 0.00010323
21 tl_o[53] *611:12 4.18157e-05
22 tl_o[53] *613:22 3.95619e-06
23 tl_o[50] tl_o[53] 4.91475e-05
24 *9528:I tl_o[53] 0.00222753
*RES
1 *9576:Z tl_o[53] 35.808 
*END

*D_NET *172 0.0135758
*CONN
*P tl_o[54] O
*I *9577:Z O *D gf180mcu_fd_sc_mcu7t5v0__dlyd_1
*CAP
1 tl_o[54] 0.00244649
2 *9577:Z 0.00244649
3 tl_o[54] *9215:A1 0.000382948
4 tl_o[54] *9223:A1 0.000465606
5 tl_o[54] *9224:A2 0.00039566
6 tl_o[54] *9258:B2 0.000104542
7 tl_o[54] *9262:B 6.83584e-05
8 tl_o[54] *9378:I0 0.00033655
9 tl_o[54] *9379:I0 0.000164994
10 tl_o[54] *9379:I1 0.000276925
11 tl_o[54] *9439:CLK 0.000122656
12 tl_o[54] *9468:I 2.13169e-05
13 tl_o[54] *256:12 0.00100258
14 tl_o[54] *375:69 9.51221e-05
15 tl_o[54] *380:63 5.38568e-05
16 tl_o[54] *404:14 0
17 tl_o[20] tl_o[54] 0.000284215
18 tl_o[21] tl_o[54] 0.000375889
19 tl_o[26] tl_o[54] 0.000368299
20 tl_o[4] tl_o[54] 0.000458365
21 tl_o[52] tl_o[54] 0.00169951
22 *9479:I tl_o[54] 6.60087e-05
23 *9533:I tl_o[54] 0.00169667
24 *9541:I tl_o[54] 0.000138826
25 *9545:I tl_o[54] 0.000103922
*RES
1 *9577:Z tl_o[54] 42.256 
*END

*D_NET *173 0.00705724
*CONN
*P tl_o[55] O
*I *9578:Z O *D gf180mcu_fd_sc_mcu7t5v0__dlyd_1
*CAP
1 tl_o[55] 0.00204162
2 *9578:Z 0.00204162
3 tl_o[55] tl_o[58] 0.000596581
4 tl_o[55] *9436:CLK 0.000156319
5 tl_o[40] tl_o[55] 3.24926e-05
6 tl_o[53] tl_o[55] 0.000606174
7 *9486:I tl_o[55] 9.67931e-05
8 *9487:I tl_o[55] 0.00101257
9 *9498:I tl_o[55] 4.30726e-05
10 *4:25 tl_o[55] 0.00042999
*RES
1 *9578:Z tl_o[55] 35.392 
*END

*D_NET *174 0.0100782
*CONN
*P tl_o[56] O
*I *9579:Z O *D gf180mcu_fd_sc_mcu7t5v0__dlyd_1
*CAP
1 tl_o[56] 0.00131012
2 *9579:Z 0.00131012
3 tl_o[56] tl_o[6] 2.83242e-05
4 tl_o[56] *9382:I0 9.66623e-05
5 tl_o[56] *9599:I 0.000268824
6 tl_o[56] *9613:I 0.000286849
7 tl_o[56] *9640:I 0
8 tl_o[56] *375:94 0
9 tl_o[56] *393:14 6.40114e-06
10 tl_o[56] *412:31 0.000559922
11 tl_o[56] *475:16 3.35189e-05
12 tl_o[56] *484:22 0.000808361
13 tl_o[56] *594:146 0
14 tl_o[56] *610:14 6.33047e-05
15 tl_o[27] tl_o[56] 0.000523411
16 tl_o[49] tl_o[56] 0.000477558
17 *9478:I tl_o[56] 0.00142088
18 *9498:I tl_o[56] 6.75031e-05
19 *9528:I tl_o[56] 0.00281648
*RES
1 *9579:Z tl_o[56] 33.624 
*END

*D_NET *175 0.00766173
*CONN
*P tl_o[57] O
*I *9580:Z O *D gf180mcu_fd_sc_mcu7t5v0__dlyd_1
*CAP
1 tl_o[57] 0.000687904
2 *9580:Z 0.000687904
3 tl_o[57] *9262:B 0.000116815
4 tl_o[57] *9439:CLK 0.000262946
5 tl_o[27] tl_o[57] 0.00202524
6 *9477:I tl_o[57] 0.00257882
7 *9485:I tl_o[57] 0.0013021
*RES
1 *9580:Z tl_o[57] 28.216 
*END

*D_NET *176 0.0121011
*CONN
*P tl_o[58] O
*I *9581:Z O *D gf180mcu_fd_sc_mcu7t5v0__dlyd_1
*CAP
1 tl_o[58] 0.00159739
2 *9581:Z 0.00159739
3 tl_o[58] tl_o[63] 6.29916e-05
4 tl_o[58] *9283:A1 0.000328611
5 tl_o[58] *9385:I0 0.000217811
6 tl_o[58] *9385:I1 0.000313488
7 tl_o[58] *9439:D 9.0779e-05
8 tl_o[58] *9474:I 0.00140893
9 tl_o[58] *9475:I 0.000963623
10 tl_o[58] *9573:I 0.000842413
11 tl_o[58] *9581:I 0.000256322
12 tl_o[58] *9639:I 2.50554e-05
13 tl_o[58] *399:18 0.000364151
14 tl_o[58] *421:41 0.000442364
15 tl_o[58] *421:54 0.000294959
16 tl_o[58] *421:79 0.000182219
17 tl_o[58] *475:16 0.000355746
18 tl_o[58] *594:129 0.000487069
19 tl_o[58] *613:22 3.57634e-06
20 tl_o[25] tl_o[58] 0.000635104
21 tl_o[53] tl_o[58] 0.000264592
22 tl_o[55] tl_o[58] 0.000596581
23 *9487:I tl_o[58] 0.000730455
24 *9520:I tl_o[58] 3.9462e-05
*RES
1 *9581:Z tl_o[58] 36.952 
*END

*D_NET *177 0.00226669
*CONN
*P tl_o[59] O
*I *9627:ZN O *D gf180mcu_fd_sc_mcu7t5v0__tiel
*CAP
1 tl_o[59] 0.00067711
2 *9627:ZN 0.00067711
3 tl_o[59] tl_o[9] 0
4 tl_o[11] tl_o[59] 0.000912464
*RES
1 *9627:ZN tl_o[59] 12.664 
*END

*D_NET *178 0.00783011
*CONN
*P tl_o[5] O
*I *9582:Z O *D gf180mcu_fd_sc_mcu7t5v0__dlyd_1
*CAP
1 tl_o[5] 0.0013384
2 *9582:Z 0.0013384
3 tl_o[5] tl_o[62] 0.000108433
4 tl_o[5] tl_o[8] 0.000427554
5 tl_o[5] *9226:A2 0.000262258
6 tl_o[5] *9380:I0 0.000462805
7 tl_o[5] *408:6 0.000105623
8 tl_o[5] *408:51 0.000673558
9 tl_o[5] *416:14 0.000185454
10 tl_o[21] tl_o[5] 0.000637212
11 tl_o[3] tl_o[5] 0.000316064
12 *9480:I tl_o[5] 4.18042e-05
13 *9484:I tl_o[5] 6.17438e-05
14 *9527:I tl_o[5] 0
15 *9530:I tl_o[5] 0.000146998
16 *9534:I tl_o[5] 0.000119606
17 *9535:I tl_o[5] 2.6732e-05
18 *9539:I tl_o[5] 0.000378402
19 *9542:I tl_o[5] 0.00119907
*RES
1 *9582:Z tl_o[5] 30.816 
*END

*D_NET *179 0.0189304
*CONN
*P tl_o[60] O
*I *9628:ZN O *D gf180mcu_fd_sc_mcu7t5v0__tiel
*CAP
1 tl_o[60] 0.00153908
2 *9628:ZN 0.00153908
3 tl_o[60] *9217:A2 0.000805679
4 tl_o[60] *9280:A1 3.39322e-05
5 tl_o[60] *438:12 8.54959e-05
6 tl_o[60] *606:8 3.511e-05
7 tl_o[0] tl_o[60] 0.000663324
8 tl_o[51] tl_o[60] 4.27053e-05
9 *9482:I tl_o[60] 0.000125347
10 *9483:I tl_o[60] 0.00763769
11 *9527:I tl_o[60] 0.00586003
12 *9534:I tl_o[60] 0.000346232
13 *9535:I tl_o[60] 8.95216e-05
14 *9539:I tl_o[60] 0.000127145
*RES
1 *9628:ZN tl_o[60] 45.168 
*END

*D_NET *180 0.00183899
*CONN
*P tl_o[61] O
*I *9629:ZN O *D gf180mcu_fd_sc_mcu7t5v0__tiel
*CAP
1 tl_o[61] 0.000919493
2 *9629:ZN 0.000919493
*RES
1 *9629:ZN tl_o[61] 12.04 
*END

*D_NET *181 0.0116964
*CONN
*P tl_o[62] O
*I *9583:Z O *D gf180mcu_fd_sc_mcu7t5v0__dlyd_1
*CAP
1 tl_o[62] 0.00124097
2 *9583:Z 0.00124097
3 tl_o[22] tl_o[62] 0.00300937
4 tl_o[51] tl_o[62] 0.000683037
5 tl_o[5] tl_o[62] 0.000108433
6 *9497:I tl_o[62] 0.00147718
7 *9527:I tl_o[62] 0
8 *9534:I tl_o[62] 0.00318827
9 *9539:I tl_o[62] 0.000367706
10 *9542:I tl_o[62] 0.000380497
*RES
1 *9583:Z tl_o[62] 34.04 
*END

*D_NET *182 0.0207586
*CONN
*P tl_o[63] O
*I *9630:ZN O *D gf180mcu_fd_sc_mcu7t5v0__tiel
*CAP
1 tl_o[63] 0.000761308
2 *9630:ZN 0.000761308
3 tl_o[63] *9216:A1 3.98026e-05
4 tl_o[12] tl_o[63] 0.0103323
5 tl_o[13] tl_o[63] 0.00125186
6 tl_o[41] tl_o[63] 0.000655643
7 tl_o[58] tl_o[63] 6.29916e-05
8 *9486:I tl_o[63] 0.00495031
9 *9487:I tl_o[63] 0.00085087
10 *9501:I tl_o[63] 0.000247057
11 *9520:I tl_o[63] 0.000845142
*RES
1 *9630:ZN tl_o[63] 47.872 
*END

*D_NET *183 0.0101355
*CONN
*P tl_o[64] O
*I *9631:ZN O *D gf180mcu_fd_sc_mcu7t5v0__tiel
*CAP
1 tl_o[64] 0.00118717
2 *9631:ZN 0.00118717
3 tl_o[64] *9235:A1 1.57479e-05
4 tl_o[64] *9235:A2 0.000844438
5 tl_o[64] *9249:A2 0.000179413
6 tl_o[64] *9263:A2 3.0542e-05
7 tl_o[64] *9393:S 5.52124e-05
8 tl_o[64] *295:20 0.000165937
9 tl_o[64] *393:14 0.00051485
10 tl_o[64] *471:10 0
11 tl_o[64] *543:16 0.000101753
12 tl_o[50] tl_o[64] 0.00435467
13 *9478:I tl_o[64] 0.000271764
14 *9526:I tl_o[64] 0.00122679
*RES
1 *9631:ZN tl_o[64] 32.376 
*END

*D_NET *184 0.0105542
*CONN
*P tl_o[65] O
*I *9584:Z O *D gf180mcu_fd_sc_mcu7t5v0__dlyd_1
*CAP
1 tl_o[65] 0.00242688
2 *9584:Z 0.00242688
3 tl_o[65] *9214:A1 0
4 tl_o[65] *9216:A2 4.41424e-06
5 tl_o[65] *9222:A2 0.000236426
6 tl_o[65] *9250:A3 0.000158666
7 tl_o[65] *9283:A1 0.000313488
8 tl_o[65] *9283:A2 0.000195836
9 tl_o[65] *9382:I0 0.000400414
10 tl_o[65] *9385:I0 0.00013549
11 tl_o[65] *9385:S 5.47431e-06
12 tl_o[65] *9391:S 0.000767651
13 tl_o[65] *9639:I 0.000209474
14 tl_o[65] *295:24 0.000810479
15 tl_o[65] *375:92 0.0004657
16 tl_o[65] *594:129 0.000172131
17 tl_o[12] tl_o[65] 0.00082047
18 tl_o[13] tl_o[65] 1.46269e-05
19 tl_o[24] tl_o[65] 1.97265e-05
20 tl_o[25] tl_o[65] 0.000106476
21 *9486:I tl_o[65] 0.000860805
22 *9520:I tl_o[65] 2.73715e-06
*RES
1 *9584:Z tl_o[65] 37.056 
*END

*D_NET *185 0.0121798
*CONN
*P tl_o[6] O
*I *9617:ZN O *D gf180mcu_fd_sc_mcu7t5v0__tiel
*CAP
1 tl_o[6] 0.00269033
2 *9617:ZN 0.00269033
3 tl_o[6] *9221:A1 4.91422e-05
4 tl_o[6] *9248:A2 3.41668e-05
5 tl_o[6] *9253:A1 0.000245715
6 tl_o[6] *9436:CLK 8.24971e-05
7 tl_o[6] *9599:I 8.89433e-05
8 tl_o[6] *9613:I 0.000194983
9 tl_o[6] *9640:I 0.000143892
10 tl_o[6] *412:64 6.92414e-05
11 tl_o[6] *421:19 0.000183579
12 tl_o[6] *473:24 0.000494708
13 tl_o[6] *474:19 0.000136257
14 tl_o[6] *475:16 0.000179953
15 tl_o[50] tl_o[6] 0.00150486
16 tl_o[53] tl_o[6] 2.94896e-05
17 tl_o[56] tl_o[6] 2.83242e-05
18 *9499:I tl_o[6] 0
19 *9520:I tl_o[6] 0.00184246
20 *9526:I tl_o[6] 0.000153986
21 *9528:I tl_o[6] 0.00133695
*RES
1 *9617:ZN tl_o[6] 44.336 
*END

*D_NET *186 0.00323702
*CONN
*P tl_o[7] O
*I *9585:Z O *D gf180mcu_fd_sc_mcu7t5v0__dlyd_1
*CAP
1 tl_o[7] 0.00131703
2 *9585:Z 0.00131703
3 tl_o[7] *9329:I1 0
4 tl_o[16] tl_o[7] 0
5 tl_o[18] tl_o[7] 0.000602965
*RES
1 *9585:Z tl_o[7] 15.264 
*END

*D_NET *187 0.021086
*CONN
*P tl_o[8] O
*I *9618:ZN O *D gf180mcu_fd_sc_mcu7t5v0__tiel
*CAP
1 tl_o[8] 0.00189928
2 *9618:ZN 0.00189928
3 tl_o[8] *9213:A1 0.000569167
4 tl_o[8] *9233:A1 0.000465544
5 tl_o[8] *9233:A2 0.000314237
6 tl_o[8] *9244:B 0.000525497
7 tl_o[8] *9261:A4 0.00711433
8 tl_o[8] *9291:A2 0.000406902
9 tl_o[8] *9374:I1 2.46325e-05
10 tl_o[8] *304:18 0.000266617
11 tl_o[8] *332:14 0.000109564
12 tl_o[8] *401:20 4.49295e-05
13 tl_o[8] *407:22 3.58826e-05
14 tl_o[8] *513:49 0.000265501
15 tl_o[8] *514:14 0.000227364
16 tl_o[8] *514:21 0.00116614
17 tl_o[8] *514:48 0.000669876
18 tl_o[8] *517:20 0.000415075
19 tl_o[5] tl_o[8] 0.000427554
20 *9480:I tl_o[8] 0.000223488
21 *9525:I tl_o[8] 0.00394146
22 *3:50 tl_o[8] 7.36819e-05
*RES
1 *9618:ZN tl_o[8] 47.768 
*END

*D_NET *188 0.00196198
*CONN
*P tl_o[9] O
*I *9619:ZN O *D gf180mcu_fd_sc_mcu7t5v0__tiel
*CAP
1 tl_o[9] 0.000980991
2 *9619:ZN 0.000980991
3 tl_o[59] tl_o[9] 0
*RES
1 *9619:ZN tl_o[9] 12.664 
*END

*D_NET *189 0.0521417
*CONN
*I *9632:WEN[7] I *D gf180mcu_fd_ip_sram__sram256x8m8wm1
*I *9632:WEN[6] I *D gf180mcu_fd_ip_sram__sram256x8m8wm1
*I *9632:WEN[5] I *D gf180mcu_fd_ip_sram__sram256x8m8wm1
*I *9632:WEN[4] I *D gf180mcu_fd_ip_sram__sram256x8m8wm1
*I *9632:WEN[3] I *D gf180mcu_fd_ip_sram__sram256x8m8wm1
*I *9632:WEN[2] I *D gf180mcu_fd_ip_sram__sram256x8m8wm1
*I *9632:WEN[1] I *D gf180mcu_fd_ip_sram__sram256x8m8wm1
*I *9632:WEN[0] I *D gf180mcu_fd_ip_sram__sram256x8m8wm1
*I *9272:A3 I *D gf180mcu_fd_sc_mcu7t5v0__nor3_2
*I *9271:ZN O *D gf180mcu_fd_sc_mcu7t5v0__nand2_1
*CAP
1 *9632:WEN[7] 0.000515976
2 *9632:WEN[6] 2.53676e-05
3 *9632:WEN[5] 3.87628e-05
4 *9632:WEN[4] 6.55297e-05
5 *9632:WEN[3] 6.97384e-05
6 *9632:WEN[2] 3.01668e-05
7 *9632:WEN[1] 3.4797e-05
8 *9632:WEN[0] 0.00218302
9 *9272:A3 0.00134162
10 *9271:ZN 0.00023437
11 *189:54 0.00235207
12 *189:52 0.00258166
13 *189:46 0.00450671
14 *189:42 0.00719807
15 *189:40 0.00638924
16 *189:38 0.00126142
17 *189:34 0.000765236
18 *189:28 0.00228581
19 *9272:A3 *9340:A1 0
20 *9272:A3 *9343:A2 0.00124172
21 *9272:A3 *328:12 0.000112646
22 *9272:A3 *365:30 0.000159049
23 *9272:A3 *371:8 5.70487e-05
24 *9272:A3 *372:18 5.65061e-06
25 *9272:A3 *372:28 0.00135377
26 *9272:A3 *396:18 6.96644e-06
27 *9272:A3 *423:8 0.000406476
28 *9272:A3 *463:8 3.63356e-05
29 *9632:WEN[7] *9213:A1 0.00116702
30 *9632:WEN[7] *9342:A1 0
31 *9632:WEN[7] *9632:D[7] 0
32 *9632:WEN[7] *332:14 0
33 *9632:WEN[7] *378:176 0.000254486
34 *9632:WEN[7] *401:20 0.000182219
35 *9632:WEN[7] *402:18 0.000273993
36 *9632:WEN[7] *407:22 0.00372395
37 *9632:WEN[6] *9632:D[6] 2.78537e-05
38 *9632:WEN[5] *9632:D[5] 2.78537e-05
39 *9632:WEN[4] *9330:A1 0
40 *9632:WEN[4] *9632:D[4] 9.23812e-06
41 *9632:WEN[3] *9326:A1 0
42 *9632:WEN[3] *9632:D[3] 6.31916e-05
43 *9632:WEN[2] *9632:D[2] 2.78537e-05
44 *9632:WEN[1] *9632:D[1] 4.07263e-05
45 *9632:WEN[0] *9314:A1 0
46 *9632:WEN[0] *9632:D[0] 0
47 *189:28 *9653:I 3.48515e-05
48 *189:28 *9657:I 9.5197e-06
49 *189:28 *371:8 3.80269e-05
50 *189:28 *402:18 9.70227e-05
51 *189:34 *9632:D[6] 2.9833e-05
52 *189:34 *9632:D[5] 0
53 *189:34 *332:14 0
54 *189:34 *407:22 0.0035921
55 *189:38 *407:22 0.000137017
56 *189:40 *407:22 0.00324614
57 *189:42 *407:22 0.00365075
58 *189:42 *407:26 3.56338e-05
59 *189:42 *458:24 0.000106582
60 *189:42 *463:18 0.000106582
*RES
1 *9271:ZN *9272:A3 23.096 
2 *9272:A3 *189:28 16.176 
3 *189:28 *189:34 14.276 
4 *189:34 *189:38 5.436 
5 *189:38 *189:40 18.824 
6 *189:40 *189:42 54.704 
7 *189:42 *189:46 17.576 
8 *189:46 *189:52 19.864 
9 *189:52 *189:54 0.936 
10 *189:54 *9632:WEN[0] 23.584 
11 *189:54 *9632:WEN[1] 4.968 
12 *189:52 *9632:WEN[2] 4.968 
13 *189:46 *9632:WEN[3] 5.176 
14 *189:40 *9632:WEN[4] 4.968 
15 *189:38 *9632:WEN[5] 4.968 
16 *189:34 *9632:WEN[6] 0.468 
17 *189:28 *9632:WEN[7] 15.264 
*END

*D_NET *190 0.0691314
*CONN
*I *9633:WEN[0] I *D gf180mcu_fd_ip_sram__sram256x8m8wm1
*I *9633:WEN[7] I *D gf180mcu_fd_ip_sram__sram256x8m8wm1
*I *9633:WEN[6] I *D gf180mcu_fd_ip_sram__sram256x8m8wm1
*I *9633:WEN[5] I *D gf180mcu_fd_ip_sram__sram256x8m8wm1
*I *9633:WEN[4] I *D gf180mcu_fd_ip_sram__sram256x8m8wm1
*I *9633:WEN[3] I *D gf180mcu_fd_ip_sram__sram256x8m8wm1
*I *9633:WEN[2] I *D gf180mcu_fd_ip_sram__sram256x8m8wm1
*I *9633:WEN[1] I *D gf180mcu_fd_ip_sram__sram256x8m8wm1
*I *9282:A3 I *D gf180mcu_fd_sc_mcu7t5v0__nor3_2
*I *9281:ZN O *D gf180mcu_fd_sc_mcu7t5v0__nand2_1
*CAP
1 *9633:WEN[0] 0.000100753
2 *9633:WEN[7] 0.00233711
3 *9633:WEN[6] 3.83959e-05
4 *9633:WEN[5] 3.87628e-05
5 *9633:WEN[4] 6.98251e-05
6 *9633:WEN[3] 0.000118288
7 *9633:WEN[2] 5.37776e-05
8 *9633:WEN[1] 6.23737e-05
9 *9282:A3 0.000587058
10 *9281:ZN 0.000590629
11 *190:81 0.00251909
12 *190:71 0.00238664
13 *190:61 0.00230804
14 *190:59 0.00440725
15 *190:57 0.00555229
16 *190:45 0.00245362
17 *190:33 0.00126292
18 *190:23 0.000434191
19 *190:19 0.000512578
20 *190:10 0.00127046
21 *9282:A3 *9282:A1 0.000174815
22 *9282:A3 *9346:A1 0
23 *9282:A3 *9633:D[0] 0
24 *9633:WEN[7] *9142:A1 0
25 *9633:WEN[7] *9633:D[7] 9.23812e-06
26 *9633:WEN[6] *9633:D[6] 1.92742e-05
27 *9633:WEN[5] *9633:D[5] 2.78537e-05
28 *9633:WEN[4] *9362:A1 0
29 *9633:WEN[3] *9633:D[3] 0.000110462
30 *9633:WEN[2] *9633:D[2] 5.00817e-05
31 *9633:WEN[1] *9633:D[1] 5.00817e-05
32 *9633:WEN[0] *9346:A1 0
33 *9633:WEN[0] *9633:D[0] 0
34 *190:10 *9138:A1 0
35 *190:10 *399:18 0.000109941
36 *190:10 *448:61 0.00365806
37 *190:10 *686:21 1.3881e-05
38 *190:19 *9633:D[0] 0
39 *190:23 *9350:A1 0.000147748
40 *190:23 *448:61 0.00619304
41 *190:23 *686:21 0.0073896
42 *190:33 *9350:A1 4.04633e-05
43 *190:33 *686:21 0.000358225
44 *190:45 *686:21 0.00775647
45 *190:57 *686:21 0.00127964
46 *190:57 *686:29 0.00213205
47 *190:59 *686:29 0.0125064
*RES
1 *9281:ZN *190:10 22.964 
2 *190:10 *9282:A3 8.764 
3 *190:10 *190:19 0.52 
4 *190:19 *190:23 23.324 
5 *190:23 *9633:WEN[1] 5.176 
6 *190:23 *190:33 0.936 
7 *190:33 *9633:WEN[2] 5.176 
8 *190:33 *190:45 19.76 
9 *190:45 *9633:WEN[3] 5.384 
10 *190:45 *190:57 18.824 
11 *190:57 *190:59 53.456 
12 *190:59 *190:61 0.312 
13 *190:61 *9633:WEN[4] 4.968 
14 *190:61 *190:71 18.824 
15 *190:71 *9633:WEN[5] 4.968 
16 *190:71 *190:81 0.936 
17 *190:81 *9633:WEN[6] 4.968 
18 *190:81 *9633:WEN[7] 23.584 
19 *190:19 *9633:WEN[0] 0.676 
*END

*D_NET *191 0.039787
*CONN
*I *9292:A3 I *D gf180mcu_fd_sc_mcu7t5v0__nor3_4
*I *9565:I I *D gf180mcu_fd_sc_mcu7t5v0__clkbuf_8
*I *9291:ZN O *D gf180mcu_fd_sc_mcu7t5v0__nand2_2
*CAP
1 *9292:A3 0.00126715
2 *9565:I 0.00253549
3 *9291:ZN 0.000798376
4 *191:10 0.0129
5 *191:8 0.0124301
6 *9292:A3 *9292:A1 0.00177244
7 *9292:A3 *261:10 0.00111873
8 *9292:A3 *453:14 0.000305781
9 *9565:I *261:10 0
10 *191:8 *9376:I1 7.17602e-05
11 *191:8 *9398:D 0.0003506
12 *191:10 *9146:A1 0.00160224
13 *191:10 *9146:A2 3.511e-05
14 *191:10 *9376:I0 0
15 *191:10 *261:10 0
16 *191:10 *379:6 8.75081e-05
17 *191:10 *379:21 0.00186983
18 *9455:I *191:10 1.70394e-05
19 *3:50 *191:8 0.000376317
20 *3:50 *191:10 0
21 *3:54 *191:10 0.00188023
22 *3:61 *191:10 0.000368293
*RES
1 *9291:ZN *191:8 11.572 
2 *191:8 *191:10 94.432 
3 *191:10 *9565:I 13.34 
4 *9565:I *9292:A3 35.888 
*END

*D_NET *192 0.0651201
*CONN
*I *9302:A3 I *D gf180mcu_fd_sc_mcu7t5v0__nor3_4
*I *9564:I I *D gf180mcu_fd_sc_mcu7t5v0__buf_4
*I *9301:ZN O *D gf180mcu_fd_sc_mcu7t5v0__nand2_2
*CAP
1 *9302:A3 0
2 *9564:I 0.00167319
3 *9301:ZN 0.000455633
4 *192:10 0.0052137
5 *192:8 0.00399614
6 *192:8 *9179:A2 0.000406727
7 *192:8 *9377:I0 0.000458125
8 *192:8 *9638:I 4.49307e-05
9 *192:8 *648:89 0.000366066
10 *192:10 *9180:A1 0.000332625
11 *192:10 *9183:I1 0.00499254
12 *192:10 *9638:I 0.000159268
13 *192:10 *278:10 0.00078196
14 *192:10 *278:23 0.00344004
15 *192:10 *278:25 0.0203821
16 *192:10 *414:10 0.00984502
17 *192:10 *414:17 0.0107139
18 *192:10 *439:35 0.000355644
19 *192:10 *439:37 0.00150241
*RES
1 *9301:ZN *192:8 10.948 
2 *192:8 *192:10 101.4 
3 *192:10 *9564:I 41.6111 
4 *192:10 *9302:A3 4.5 
*END

*D_NET *193 0.00119963
*CONN
*I *9396:D I *D gf180mcu_fd_sc_mcu7t5v0__dffq_1
*I *9374:Z O *D gf180mcu_fd_sc_mcu7t5v0__mux2_2
*CAP
1 *9396:D 0.000487266
2 *9374:Z 0.000487266
3 *9396:D *9128:I 0.000151966
4 *9396:D *514:69 7.31277e-05
*RES
1 *9374:Z *9396:D 13.264 
*END

*D_NET *194 0.00213757
*CONN
*I *9397:D I *D gf180mcu_fd_sc_mcu7t5v0__dffq_1
*I *9375:Z O *D gf180mcu_fd_sc_mcu7t5v0__mux2_2
*CAP
1 *9397:D 0.00045048
2 *9375:Z 0.00045048
3 *9397:D *9267:A2 0.000419265
4 *9397:D *9267:A3 0.000497696
5 *9397:D *9397:CLK 0
6 *9397:D *375:69 0.00028394
7 *9397:D *449:84 3.57108e-05
*RES
1 *9375:Z *9397:D 13.992 
*END

*D_NET *195 0.00101491
*CONN
*I *9398:D I *D gf180mcu_fd_sc_mcu7t5v0__dffq_1
*I *9376:Z O *D gf180mcu_fd_sc_mcu7t5v0__mux2_2
*CAP
1 *9398:D 0.000332155
2 *9376:Z 0.000332155
3 *9398:D *9376:I0 0
4 *191:8 *9398:D 0.0003506
*RES
1 *9376:Z *9398:D 12.12 
*END

*D_NET *196 0.00206767
*CONN
*I *9399:D I *D gf180mcu_fd_sc_mcu7t5v0__dffq_1
*I *9377:Z O *D gf180mcu_fd_sc_mcu7t5v0__mux2_2
*CAP
1 *9399:D 0.000567609
2 *9377:Z 0.000567609
3 *9399:D *375:69 0.000414278
4 *9399:D *438:74 7.17602e-05
5 *9399:D *449:84 0.000419265
6 *9399:D *460:164 2.71538e-05
*RES
1 *9377:Z *9399:D 23.408 
*END

*D_NET *197 0.00747754
*CONN
*I *9400:D I *D gf180mcu_fd_sc_mcu7t5v0__dffq_1
*I *9317:I0 I *D gf180mcu_fd_sc_mcu7t5v0__mux2_2
*I *9316:ZN O *D gf180mcu_fd_sc_mcu7t5v0__nand2_1
*CAP
1 *9400:D 0
2 *9317:I0 0.00169333
3 *9316:ZN 0.000473834
4 *197:10 0.00216716
5 *9317:I0 *9315:A2 9.25324e-05
6 *9317:I0 *9319:A1 2.21751e-05
7 *9317:I0 *9400:CLK 0.00184694
8 *9317:I0 *9587:I 0
9 *9317:I0 *198:12 0.000150852
10 *9317:I0 *410:12 0.000246355
11 *197:10 *9315:A1 0.000660271
12 *197:10 *9315:A2 0.000124086
13 *197:10 *9324:A1 0
*RES
1 *9316:ZN *197:10 14.2 
2 *197:10 *9317:I0 24.496 
3 *197:10 *9400:D 9 
*END

*D_NET *198 0.00553609
*CONN
*I *9321:I0 I *D gf180mcu_fd_sc_mcu7t5v0__mux2_2
*I *9401:D I *D gf180mcu_fd_sc_mcu7t5v0__dffq_1
*I *9320:ZN O *D gf180mcu_fd_sc_mcu7t5v0__nand2_1
*CAP
1 *9321:I0 0.00119324
2 *9401:D 0
3 *9320:ZN 0.00114983
4 *198:12 0.00234308
5 *9321:I0 *9321:I1 0
6 *9321:I0 *9321:S 4.55636e-06
7 *9321:I0 *9329:I0 0
8 *9321:I0 *378:12 7.27874e-05
9 *9321:I0 *378:14 4.096e-05
10 *9321:I0 *451:16 0
11 *198:12 *9319:A1 0.000289333
12 *198:12 *9323:A1 5.63044e-06
13 *198:12 *9324:A2 0.000182028
14 *198:12 *9400:CLK 5.25802e-05
15 *198:12 *378:14 5.12091e-05
16 *198:12 *451:16 0
17 *9317:I0 *198:12 0.000150852
*RES
1 *9320:ZN *198:12 19.088 
2 *198:12 *9401:D 9 
3 *198:12 *9321:I0 17.944 
*END

*D_NET *199 0.0077157
*CONN
*I *9325:I0 I *D gf180mcu_fd_sc_mcu7t5v0__mux2_2
*I *9402:D I *D gf180mcu_fd_sc_mcu7t5v0__dffq_1
*I *9324:ZN O *D gf180mcu_fd_sc_mcu7t5v0__nand2_1
*CAP
1 *9325:I0 0.00140619
2 *9402:D 0
3 *9324:ZN 0.000145373
4 *199:10 0.00155157
5 *9325:I0 *9325:S 7.12302e-05
6 *9325:I0 *9327:A1 0.000125251
7 *9325:I0 *9400:CLK 3.37332e-05
8 *9325:I0 *9401:CLK 2.76457e-05
9 *9325:I0 *9402:CLK 0
10 *9325:I0 *200:10 0.000418535
11 *9325:I0 *378:14 4.81903e-05
12 *9325:I0 *424:33 0.000883495
13 *9325:I0 *424:39 0.000438808
14 *199:10 *9315:A2 0.00120818
15 *199:10 *9323:A1 0.000844673
16 *199:10 *9324:A1 8.82081e-06
17 *199:10 *9324:A2 0.00010938
18 *199:10 *9400:CLK 0.000111749
19 *199:10 *424:39 0.000282867
*RES
1 *9324:ZN *199:10 14.2 
2 *199:10 *9402:D 9 
3 *199:10 *9325:I0 20.856 
*END

*D_NET *200 0.00647023
*CONN
*I *9329:I0 I *D gf180mcu_fd_sc_mcu7t5v0__mux2_2
*I *9403:D I *D gf180mcu_fd_sc_mcu7t5v0__dffq_1
*I *9328:ZN O *D gf180mcu_fd_sc_mcu7t5v0__nand2_1
*CAP
1 *9329:I0 0.00111714
2 *9403:D 0
3 *9328:ZN 0.000390423
4 *200:10 0.00150756
5 *9329:I0 *9321:I1 0.000574565
6 *9329:I0 *378:12 0.000408794
7 *9329:I0 *424:31 3.21839e-05
8 *200:10 *9402:CLK 0
9 *200:10 *378:12 0.00128579
10 *200:10 *378:14 0.000605853
11 *200:10 *424:31 6.40114e-05
12 *200:10 *424:33 6.53824e-05
13 *9321:I0 *9329:I0 0
14 *9325:I0 *200:10 0.000418535
*RES
1 *9328:ZN *200:10 15.032 
2 *200:10 *9403:D 9 
3 *200:10 *9329:I0 17.528 
*END

*D_NET *201 0.00704093
*CONN
*I *9333:I0 I *D gf180mcu_fd_sc_mcu7t5v0__mux2_2
*I *9404:D I *D gf180mcu_fd_sc_mcu7t5v0__dffq_1
*I *9332:ZN O *D gf180mcu_fd_sc_mcu7t5v0__nand2_1
*CAP
1 *9333:I0 0.000885487
2 *9404:D 0.000158262
3 *9332:ZN 0.000581892
4 *201:10 0.00162564
5 *9333:I0 *9230:A1 0
6 *9333:I0 *9336:A1 6.96367e-05
7 *9333:I0 *9337:I0 3.22108e-05
8 *9333:I0 *9339:A1 0.000115366
9 *9333:I0 *9394:A2 0.000418233
10 *9333:I0 *203:12 0
11 *9333:I0 *328:12 0.000234146
12 *9333:I0 *328:20 0
13 *9333:I0 *372:18 0.000446099
14 *9333:I0 *411:12 0.00086392
15 *9333:I0 *449:16 0.00104971
16 *9333:I0 *594:32 9.30909e-05
17 *9404:D *9336:A1 4.67771e-06
18 *9404:D *9632:D[6] 4.08451e-05
19 *201:10 *9331:A1 5.60123e-05
20 *201:10 *9336:A1 5.47783e-05
21 *201:10 *9339:A1 3.71243e-05
22 *201:10 *9632:D[5] 0.000117959
23 *201:10 *9650:I 0
24 *201:10 *328:22 0
25 *201:10 *378:71 0.000155833
*RES
1 *9332:ZN *201:10 14.408 
2 *201:10 *9404:D 9.936 
3 *201:10 *9333:I0 20.024 
*END

*D_NET *202 0.00912832
*CONN
*I *9405:D I *D gf180mcu_fd_sc_mcu7t5v0__dffq_1
*I *9337:I0 I *D gf180mcu_fd_sc_mcu7t5v0__mux2_2
*I *9336:ZN O *D gf180mcu_fd_sc_mcu7t5v0__nand2_1
*CAP
1 *9405:D 4.63197e-05
2 *9337:I0 0.000711711
3 *9336:ZN 0.000120494
4 *202:12 0.000878525
5 *9337:I0 *9337:S 0.000422647
6 *9337:I0 *9343:A1 0.000642367
7 *9337:I0 *9549:I 0.000115092
8 *9337:I0 *328:12 0.000688572
9 *9337:I0 *378:102 5.23324e-05
10 *9337:I0 *378:108 0
11 *9337:I0 *408:60 0.000671562
12 *9337:I0 *411:12 0.00174894
13 *9337:I0 *444:18 6.34017e-05
14 *9337:I0 *449:16 0.000399084
15 *9337:I0 *460:22 8.51644e-05
16 *9405:D *9344:A1 0.000306249
17 *9405:D *396:18 0.000125251
18 *202:12 *9336:A1 0.000208806
19 *202:12 *9344:A1 0.000260638
20 *202:12 *9406:CLK 8.16884e-06
21 *202:12 *378:80 0.000234643
22 *202:12 *378:91 0.000134086
23 *202:12 *396:18 0.000109435
24 *202:12 *449:16 0.00106261
25 *9333:I0 *9337:I0 3.22108e-05
*RES
1 *9336:ZN *202:12 17.244 
2 *202:12 *9337:I0 23.588 
3 *202:12 *9405:D 5.436 
*END

*D_NET *203 0.00755686
*CONN
*I *9406:D I *D gf180mcu_fd_sc_mcu7t5v0__dffq_1
*I *9341:I0 I *D gf180mcu_fd_sc_mcu7t5v0__mux2_2
*I *9340:ZN O *D gf180mcu_fd_sc_mcu7t5v0__nand2_1
*CAP
1 *9406:D 0.000122198
2 *9341:I0 0.00138247
3 *9340:ZN 0.000339657
4 *203:12 0.00184433
5 *9341:I0 *9220:A1 0.000179381
6 *9341:I0 *9232:A1 3.60231e-05
7 *9341:I0 *9232:A2 5.47431e-06
8 *9341:I0 *9280:A1 0
9 *9341:I0 *9341:S 8.39684e-05
10 *9341:I0 *9574:I 0.000536943
11 *9341:I0 *295:12 0.000542439
12 *9341:I0 *411:12 0
13 *9341:I0 *438:12 0.000135443
14 *9341:I0 *444:18 0
15 *9341:I0 *460:30 2.16642e-05
16 *9341:I0 *594:38 0.000551292
17 *9341:I0 *606:8 0
18 *9406:D *438:12 6.13659e-05
19 *9406:D *460:30 6.41811e-05
20 *203:12 *9339:A1 0
21 *203:12 *328:20 0.000438808
22 *203:12 *438:12 0.000865665
23 *203:12 *449:16 0
24 *9333:I0 *203:12 0
25 *9496:I *9341:I0 0.000345561
*RES
1 *9340:ZN *203:12 17.036 
2 *203:12 *9341:I0 25.46 
3 *203:12 *9406:D 5.644 
*END

*D_NET *204 0.0193184
*CONN
*I *9345:I0 I *D gf180mcu_fd_sc_mcu7t5v0__mux2_2
*I *9407:D I *D gf180mcu_fd_sc_mcu7t5v0__dffq_1
*I *9344:ZN O *D gf180mcu_fd_sc_mcu7t5v0__nand2_1
*CAP
1 *9345:I0 0.000647938
2 *9407:D 0
3 *9344:ZN 0.000284893
4 *204:8 0.000932831
5 *9345:I0 *9259:B2 0.00250084
6 *9345:I0 *378:146 0.000493419
7 *9345:I0 *378:159 0.00221207
8 *9345:I0 *408:25 0.00250084
9 *9345:I0 *449:32 4.97341e-06
10 *9345:I0 *460:14 0.00227255
11 *9345:I0 *460:77 0.00236401
12 *9345:I0 *460:81 0.000141855
13 *9345:I0 *515:8 0.00089398
14 *9345:I0 *530:22 0.00131683
15 *204:8 *9394:A2 0.000150077
16 *204:8 *378:91 0.000412354
17 *204:8 *378:102 0.00111349
18 *204:8 *378:135 0.000235881
19 *204:8 *378:146 0.000298828
20 *204:8 *449:16 0.000280734
21 *204:8 *460:14 0.000260006
*RES
1 *9344:ZN *204:8 14.512 
2 *204:8 *9407:D 9 
3 *204:8 *9345:I0 31.672 
*END

*D_NET *205 0.00461281
*CONN
*I *9349:I0 I *D gf180mcu_fd_sc_mcu7t5v0__mux2_2
*I *9408:D I *D gf180mcu_fd_sc_mcu7t5v0__dffq_1
*I *9348:ZN O *D gf180mcu_fd_sc_mcu7t5v0__nand2_1
*CAP
1 *9349:I0 0
2 *9408:D 0.000523357
3 *9348:ZN 0.000550702
4 *205:12 0.00107406
5 *9408:D *9347:A1 3.38226e-05
6 *9408:D *9349:S 8.24722e-05
7 *9408:D *9390:I0 0.0004162
8 *9408:D *9597:I 0.000602924
9 *9408:D *329:26 0.000594117
10 *9408:D *412:79 0.000490961
11 *9408:D *419:14 0
12 *205:12 *9347:A1 5.18292e-05
13 *205:12 *9347:A2 5.01937e-05
14 *205:12 *9349:S 3.73779e-05
15 *205:12 *207:12 0
16 *205:12 *448:49 6.89491e-05
17 *205:12 *448:61 3.58433e-05
*RES
1 *9348:ZN *205:12 16.62 
2 *205:12 *9408:D 20.364 
3 *205:12 *9349:I0 4.5 
*END

*D_NET *206 0.00216079
*CONN
*I *9409:D I *D gf180mcu_fd_sc_mcu7t5v0__dffq_1
*I *9353:I0 I *D gf180mcu_fd_sc_mcu7t5v0__mux2_2
*I *9352:ZN O *D gf180mcu_fd_sc_mcu7t5v0__nand2_1
*CAP
1 *9409:D 0.000160908
2 *9353:I0 0.000261559
3 *9352:ZN 0
4 *206:4 0.000422466
5 *9353:I0 *9284:A1 0.000477837
6 *9353:I0 *9284:A2 0.000408645
7 *9353:I0 *9352:A1 1.71326e-05
8 *9353:I0 *9353:S 9.35542e-06
9 *9353:I0 *9355:A1 7.60693e-05
10 *9353:I0 *9355:A2 0
11 *9353:I0 *9411:CLK 0
12 *9353:I0 *9633:D[1] 0.000115166
13 *9353:I0 *448:49 6.18411e-06
14 *9409:D *9352:A1 0.000135232
15 *9409:D *9356:A2 0
16 *9409:D *9633:D[1] 7.02352e-05
*RES
1 *9352:ZN *206:4 4.5 
2 *206:4 *9353:I0 7.724 
3 *206:4 *9409:D 6.164 
*END

*D_NET *207 0.00763177
*CONN
*I *9410:D I *D gf180mcu_fd_sc_mcu7t5v0__dffq_1
*I *9357:I0 I *D gf180mcu_fd_sc_mcu7t5v0__mux2_2
*I *9356:ZN O *D gf180mcu_fd_sc_mcu7t5v0__nand2_1
*CAP
1 *9410:D 3.6366e-05
2 *9357:I0 0.0012512
3 *9356:ZN 0.000490825
4 *207:12 0.00177839
5 *9357:I0 *9187:I0 5.51847e-05
6 *9357:I0 *9187:I1 0
7 *9357:I0 *9357:S 7.23713e-06
8 *9357:I0 *9361:S 1.98457e-05
9 *9357:I0 *9599:I 0.000877711
10 *9357:I0 *9633:D[2] 5.40376e-05
11 *9357:I0 *412:79 0.00062476
12 *9357:I0 *419:14 7.86587e-06
13 *9357:I0 *445:20 0
14 *207:12 *9185:A1 0.000271764
15 *207:12 *9347:A2 0.000682174
16 *207:12 *9352:A1 0.000871065
17 *207:12 *9552:I 4.18042e-05
18 *207:12 *9633:D[2] 0.000103351
19 *207:12 *412:79 0.000220496
20 *207:12 *448:49 1.57245e-05
21 *9499:I *9357:I0 0
22 *9500:I *9357:I0 0.000221978
23 *205:12 *207:12 0
*RES
1 *9356:ZN *207:12 21.196 
2 *207:12 *9357:I0 15.732 
3 *207:12 *9410:D 4.812 
*END

*D_NET *208 0.00666189
*CONN
*I *9411:D I *D gf180mcu_fd_sc_mcu7t5v0__dffq_1
*I *9361:I0 I *D gf180mcu_fd_sc_mcu7t5v0__mux2_2
*I *9360:ZN O *D gf180mcu_fd_sc_mcu7t5v0__nand2_1
*CAP
1 *9411:D 0
2 *9361:I0 0.00189841
3 *9360:ZN 0.000821588
4 *208:10 0.00272
5 *9361:I0 *9285:A2 1.55348e-05
6 *9361:I0 *448:12 0
7 *9361:I0 *448:20 0.000136122
8 *208:10 *9351:A2 0
9 *208:10 *9359:A1 0
10 *208:10 *9411:CLK 1.09486e-05
11 tl_o[12] *9361:I0 5.05096e-05
12 tl_o[13] *9361:I0 0.00100878
*RES
1 *9360:ZN *208:10 10.636 
2 *208:10 *9361:I0 27.956 
3 *208:10 *9411:D 4.5 
*END

*D_NET *209 0.00747881
*CONN
*I *9412:D I *D gf180mcu_fd_sc_mcu7t5v0__dffq_1
*I *9365:I0 I *D gf180mcu_fd_sc_mcu7t5v0__mux2_2
*I *9364:ZN O *D gf180mcu_fd_sc_mcu7t5v0__nand2_1
*CAP
1 *9412:D 0
2 *9365:I0 0.00136894
3 *9364:ZN 0.000278844
4 *209:10 0.00164779
5 *9365:I0 *9369:I0 5.28488e-05
6 *9365:I0 *9373:I0 0.000219557
7 *9365:I0 *380:164 0.000522341
8 *9365:I0 *430:10 0.000308268
9 *209:10 *9145:I0 0.000522092
10 *209:10 *9363:A1 9.8328e-06
11 *209:10 *9369:I0 0.000293983
12 *209:10 *380:164 0.00213783
13 *209:10 *380:175 0.000116476
*RES
1 *9364:ZN *209:10 15.656 
2 *209:10 *9365:I0 20.648 
3 *209:10 *9412:D 9 
*END

*D_NET *210 0.0122871
*CONN
*I *9413:D I *D gf180mcu_fd_sc_mcu7t5v0__dffq_1
*I *9369:I0 I *D gf180mcu_fd_sc_mcu7t5v0__mux2_2
*I *9368:ZN O *D gf180mcu_fd_sc_mcu7t5v0__nand2_1
*CAP
1 *9413:D 0.000142085
2 *9369:I0 0.00148241
3 *9368:ZN 0.000344413
4 *210:10 0.00196891
5 *9369:I0 *9145:I0 0.00279675
6 *9369:I0 *9369:S 6.18411e-06
7 *9369:I0 *380:160 0.000221261
8 *9369:I0 *430:10 0.00185199
9 *9369:I0 *430:36 0.000823029
10 *9413:D *9371:A1 0
11 *210:10 *9145:I0 0.00150013
12 *210:10 *9367:A1 0.000126046
13 *210:10 *9368:A2 5.07976e-05
14 *210:10 *211:10 2.01852e-05
15 *210:10 *430:36 0.00023775
16 *210:10 *430:49 0.000368355
17 *9365:I0 *9369:I0 5.28488e-05
18 *209:10 *9369:I0 0.000293983
*RES
1 *9368:ZN *210:10 14.824 
2 *210:10 *9369:I0 27.304 
3 *210:10 *9413:D 9.728 
*END

*D_NET *211 0.00728803
*CONN
*I *9414:D I *D gf180mcu_fd_sc_mcu7t5v0__dffq_1
*I *9373:I0 I *D gf180mcu_fd_sc_mcu7t5v0__mux2_2
*I *9372:ZN O *D gf180mcu_fd_sc_mcu7t5v0__nand2_1
*CAP
1 *9414:D 0
2 *9373:I0 0.00216951
3 *9372:ZN 0.00108113
4 *211:10 0.00325064
5 *9373:I0 *9365:S 0
6 *9373:I0 *9369:I1 1.25868e-05
7 *9373:I0 *9369:S 0
8 *9373:I0 *9373:S 1.40331e-05
9 *9373:I0 *380:160 0
10 *9373:I0 *380:164 0
11 *9373:I0 *380:175 0
12 *9373:I0 *450:17 0.00028424
13 *211:10 *9367:A1 3.77005e-05
14 *211:10 *9371:A1 0
15 *211:10 *9415:CLK 0
16 *211:10 *380:175 0
17 *211:10 *450:17 0.000198435
18 *9365:I0 *9373:I0 0.000219557
19 *210:10 *211:10 2.01852e-05
*RES
1 *9372:ZN *211:10 18.36 
2 *211:10 *9373:I0 26.264 
3 *211:10 *9414:D 9 
*END

*D_NET *212 0.0113933
*CONN
*I *9145:I0 I *D gf180mcu_fd_sc_mcu7t5v0__mux2_2
*I *9415:D I *D gf180mcu_fd_sc_mcu7t5v0__dffq_1
*I *9144:ZN O *D gf180mcu_fd_sc_mcu7t5v0__nand2_1
*CAP
1 *9145:I0 0.00178031
2 *9415:D 8.51376e-05
3 *9144:ZN 0.000324406
4 *212:12 0.00218985
5 *9145:I0 *9143:A2 0.000112969
6 *9145:I0 *9145:S 0.000440025
7 *9145:I0 *9363:A1 0
8 *9145:I0 *9415:CLK 0.000681288
9 *9145:I0 *380:175 0.000346494
10 *9145:I0 *418:39 4.11759e-05
11 *9145:I0 *430:49 1.89425e-05
12 *9415:D *9367:A1 0
13 *212:12 *9143:A1 0.000136122
14 *212:12 *9143:A2 0.000410477
15 *212:12 *9367:A1 0
16 *212:12 *9372:A1 7.11788e-06
17 *9369:I0 *9145:I0 0.00279675
18 *209:10 *9145:I0 0.000522092
19 *210:10 *9145:I0 0.00150013
*RES
1 *9144:ZN *212:12 17.66 
2 *212:12 *9415:D 5.02 
3 *212:12 *9145:I0 36.588 
*END

*D_NET *213 0.00357005
*CONN
*I *9416:D I *D gf180mcu_fd_sc_mcu7t5v0__dffq_1
*I *9150:I0 I *D gf180mcu_fd_sc_mcu7t5v0__mux2_2
*I *9149:ZN O *D gf180mcu_fd_sc_mcu7t5v0__nand2_1
*CAP
1 *9416:D 0.000208407
2 *9150:I0 0.000726063
3 *9149:ZN 0.000682653
4 *213:8 0.00161712
5 *9150:I0 *409:12 0
6 *9150:I0 *409:14 0
7 *9150:I0 *553:12 5.44097e-05
8 *9416:D *409:12 0
9 *213:8 *9416:CLK 0.000228035
10 *213:8 *379:79 5.33617e-05
*RES
1 *9149:ZN *213:8 13.68 
2 *213:8 *9150:I0 15.76 
3 *213:8 *9416:D 10.768 
*END

*D_NET *214 0.00573873
*CONN
*I *9417:D I *D gf180mcu_fd_sc_mcu7t5v0__dffq_1
*I *9154:I0 I *D gf180mcu_fd_sc_mcu7t5v0__mux2_2
*I *9153:ZN O *D gf180mcu_fd_sc_mcu7t5v0__nand2_1
*CAP
1 *9417:D 0
2 *9154:I0 0.000242834
3 *9153:ZN 0.000461337
4 *214:10 0.000704171
5 *9154:I0 *9162:I0 0.00209752
6 *9154:I0 *379:77 0.000534088
7 *9154:I0 *409:12 6.40114e-06
8 *9154:I0 *409:14 7.5988e-05
9 *9154:I0 *555:8 0.000764899
10 *214:10 *9149:A2 5.21402e-05
11 *214:10 *9157:A1 0
12 *214:10 *9162:I0 0.000322343
13 *214:10 *9418:D 0.000121725
14 *214:10 *379:77 0.000355286
*RES
1 *9153:ZN *214:10 12.744 
2 *214:10 *9154:I0 17.008 
3 *214:10 *9417:D 9 
*END

*D_NET *215 0.00457705
*CONN
*I *9418:D I *D gf180mcu_fd_sc_mcu7t5v0__dffq_1
*I *9158:I0 I *D gf180mcu_fd_sc_mcu7t5v0__mux2_2
*I *9157:ZN O *D gf180mcu_fd_sc_mcu7t5v0__nand2_1
*CAP
1 *9418:D 0.000517865
2 *9158:I0 0.000526669
3 *9157:ZN 0.000119797
4 *215:8 0.00116433
5 *9158:I0 *9149:A2 0.000784644
6 *9158:I0 *442:25 0.000572927
7 *9158:I0 *442:27 5.28381e-05
8 *9418:D *9149:A2 0
9 *9418:D *379:79 0
10 *215:8 *9149:A2 0.000644685
11 *215:8 *9153:A2 4.98252e-05
12 *215:8 *442:25 2.17484e-05
13 *214:10 *9418:D 0.000121725
*RES
1 *9157:ZN *215:8 10.976 
2 *215:8 *9158:I0 16.384 
3 *215:8 *9418:D 12.016 
*END

*D_NET *216 0.00799342
*CONN
*I *9419:D I *D gf180mcu_fd_sc_mcu7t5v0__dffq_1
*I *9162:I0 I *D gf180mcu_fd_sc_mcu7t5v0__mux2_2
*I *9161:ZN O *D gf180mcu_fd_sc_mcu7t5v0__nand2_1
*CAP
1 *9419:D 3.02025e-05
2 *9162:I0 0.000532339
3 *9161:ZN 0.000215474
4 *216:10 0.000778015
5 *9162:I0 *9148:A2 0.000201346
6 *9162:I0 *9162:I1 0
7 *9162:I0 *379:73 0.000198172
8 *9162:I0 *379:77 0.000669232
9 *9162:I0 *409:12 0.000490298
10 *9162:I0 *425:42 0.000185538
11 *9162:I0 *425:53 0.000170235
12 *9419:D *9157:A2 0.000113027
13 *216:10 *9161:A2 0.000476175
14 *216:10 *379:73 0.000474574
15 *216:10 *425:42 0.00103893
16 *9154:I0 *9162:I0 0.00209752
17 *214:10 *9162:I0 0.000322343
*RES
1 *9161:ZN *216:10 13.368 
2 *216:10 *9162:I0 21.272 
3 *216:10 *9419:D 9.312 
*END

*D_NET *217 0.0172853
*CONN
*I *9420:D I *D gf180mcu_fd_sc_mcu7t5v0__dffq_1
*I *9166:I0 I *D gf180mcu_fd_sc_mcu7t5v0__mux2_2
*I *9165:ZN O *D gf180mcu_fd_sc_mcu7t5v0__nand2_1
*CAP
1 *9420:D 0
2 *9166:I0 0.000157241
3 *9165:ZN 0.000840213
4 *217:14 0.000997454
5 *9166:I0 *9420:CLK 2.04597e-06
6 *9166:I0 *379:58 6.8199e-07
7 *9166:I0 *379:73 0.00521781
8 *9166:I0 *425:32 0.00486051
9 *9166:I0 *442:10 0.000193358
10 *217:14 *9170:I0 0.000484142
11 *217:14 *379:58 3.48001e-06
12 *217:14 *425:26 0.000632886
13 *217:14 *442:10 0.00389545
*RES
1 *9165:ZN *217:14 25.876 
2 *217:14 *9166:I0 28.476 
3 *217:14 *9420:D 4.5 
*END

*D_NET *218 0.0199927
*CONN
*I *9421:D I *D gf180mcu_fd_sc_mcu7t5v0__dffq_1
*I *9170:I0 I *D gf180mcu_fd_sc_mcu7t5v0__mux2_2
*I *9169:ZN O *D gf180mcu_fd_sc_mcu7t5v0__nand2_1
*CAP
1 *9421:D 0
2 *9170:I0 0.00079453
3 *9169:ZN 0.0003764
4 *218:10 0.00117093
5 *9170:I0 *9170:S 0.000181002
6 *9170:I0 *379:52 0.000501134
7 *9170:I0 *379:58 0.00561131
8 *9170:I0 *413:28 0
9 *9170:I0 *425:26 0.0034075
10 *9170:I0 *442:10 0.000287803
11 *218:10 *379:52 0.00425591
12 *218:10 *425:26 0.00258037
13 *218:10 *442:10 0.00034165
14 *217:14 *9170:I0 0.000484142
*RES
1 *9169:ZN *218:10 21.064 
2 *218:10 *9170:I0 28.552 
3 *218:10 *9421:D 9 
*END

*D_NET *219 0.00143126
*CONN
*I *9174:I0 I *D gf180mcu_fd_sc_mcu7t5v0__mux2_2
*I *9422:D I *D gf180mcu_fd_sc_mcu7t5v0__dffq_1
*I *9173:ZN O *D gf180mcu_fd_sc_mcu7t5v0__nand2_1
*CAP
1 *9174:I0 0.000218902
2 *9422:D 0.000342173
3 *9173:ZN 0
4 *219:4 0.000561075
5 *9174:I0 *9171:A1 8.85729e-06
6 *9174:I0 *9173:A2 4.67771e-06
7 *9174:I0 *9174:S 5.3062e-05
8 *9174:I0 *261:35 0
9 *9422:D *9173:A2 0.000239699
10 *9422:D *9174:S 2.81522e-06
*RES
1 *9173:ZN *219:4 4.5 
2 *219:4 *9422:D 7.308 
3 *219:4 *9174:I0 5.852 
*END

*D_NET *220 0.00249445
*CONN
*I *9423:D I *D gf180mcu_fd_sc_mcu7t5v0__dffq_1
*I *9178:I0 I *D gf180mcu_fd_sc_mcu7t5v0__mux2_2
*I *9177:ZN O *D gf180mcu_fd_sc_mcu7t5v0__nand2_1
*CAP
1 *9423:D 0
2 *9178:I0 0.000373409
3 *9177:ZN 0.000353382
4 *220:10 0.00072679
5 *9178:I0 *9178:I1 1.19584e-05
6 *9178:I0 *261:24 0
7 *9178:I0 *413:14 0.000404241
8 *220:10 *9177:A2 1.26446e-05
9 *220:10 *261:18 0.000428493
10 *220:10 *261:24 0
11 *220:10 *413:14 0.000183528
*RES
1 *9177:ZN *220:10 11.912 
2 *220:10 *9178:I0 12.12 
3 *220:10 *9423:D 9 
*END

*D_NET *221 0.00980047
*CONN
*I *9183:I0 I *D gf180mcu_fd_sc_mcu7t5v0__mux2_2
*I *9424:D I *D gf180mcu_fd_sc_mcu7t5v0__dffq_1
*I *9182:ZN O *D gf180mcu_fd_sc_mcu7t5v0__nand2_1
*CAP
1 *9183:I0 0.00159306
2 *9424:D 0.000208426
3 *9182:ZN 0.000911755
4 *221:14 0.00271324
5 *9183:I0 *9456:I 8.14379e-05
6 *9183:I0 *373:6 8.14679e-05
7 *9183:I0 *373:11 0.000118681
8 *9183:I0 *414:10 7.87395e-06
9 *9183:I0 *414:17 0.000914737
10 *221:14 *9181:A1 0.00160224
11 *221:14 *9182:A2 0.000704552
12 *221:14 *278:25 0.000686172
13 *221:14 *439:37 0.000176826
*RES
1 *9182:ZN *221:14 20.024 
2 *221:14 *9424:D 10.768 
3 *221:14 *9183:I0 23.248 
*END

*D_NET *222 0.00507994
*CONN
*I *9425:D I *D gf180mcu_fd_sc_mcu7t5v0__dffq_1
*I *9187:I0 I *D gf180mcu_fd_sc_mcu7t5v0__mux2_2
*I *9186:ZN O *D gf180mcu_fd_sc_mcu7t5v0__nand2_1
*CAP
1 *9425:D 6.06099e-05
2 *9187:I0 0.000786336
3 *9186:ZN 0.000278445
4 *222:6 0.00112539
5 *9187:I0 *9425:CLK 0
6 *9187:I0 *9633:D[2] 0.000370787
7 *9187:I0 *380:25 0.000195836
8 *9187:I0 *418:6 0.000224771
9 *9187:I0 *448:49 0
10 *222:6 *9354:A1 0.000990768
11 *222:6 *9354:A2 0.000854475
12 *222:6 *9356:A1 0.000100253
13 *222:6 *9471:I 8.11931e-06
14 *222:6 *9633:D[2] 2.89608e-05
15 *222:6 *9633:D[1] 0
16 *9357:I0 *9187:I0 5.51847e-05
*RES
1 *9186:ZN *222:6 8.556 
2 *222:6 *9187:I0 19.636 
3 *222:6 *9425:D 5.02 
*END

*D_NET *223 0.0120339
*CONN
*I *9426:D I *D gf180mcu_fd_sc_mcu7t5v0__dffq_1
*I *9191:I0 I *D gf180mcu_fd_sc_mcu7t5v0__mux2_2
*I *9190:ZN O *D gf180mcu_fd_sc_mcu7t5v0__nand2_1
*CAP
1 *9426:D 0
2 *9191:I0 0.00091013
3 *9190:ZN 0.000783082
4 *223:12 0.00169321
5 *9191:I0 *9189:A2 0.00385005
6 *9191:I0 *9195:I0 9.88854e-06
7 *9191:I0 *9550:I 9.88854e-06
8 *9191:I0 *381:127 0.000950194
9 *9191:I0 *429:14 0.00224547
10 *223:12 *9189:A1 4.83728e-05
11 *223:12 *9189:A2 8.55595e-05
12 *223:12 *9190:A2 0.000483845
13 *223:12 *9194:A1 0.000964252
*RES
1 *9190:ZN *223:12 23.692 
2 *223:12 *9191:I0 30.452 
3 *223:12 *9426:D 4.5 
*END

*D_NET *224 0.00782772
*CONN
*I *9427:D I *D gf180mcu_fd_sc_mcu7t5v0__dffq_1
*I *9195:I0 I *D gf180mcu_fd_sc_mcu7t5v0__mux2_2
*I *9194:ZN O *D gf180mcu_fd_sc_mcu7t5v0__nand2_1
*CAP
1 *9427:D 0
2 *9195:I0 0.00108193
3 *9194:ZN 0.000885763
4 *224:12 0.0019677
5 *9195:I0 *9191:I1 3.22989e-05
6 *9195:I0 *9191:S 0.0001154
7 *9195:I0 *381:136 3.42024e-05
8 *9195:I0 *384:8 0.00146411
9 *9195:I0 *415:12 0.00116868
10 *9195:I0 *429:14 0.000291973
11 *224:12 *9194:A1 1.23748e-05
12 *224:12 *9194:A2 0.000448841
13 *224:12 *381:127 0.000314548
14 *9191:I0 *9195:I0 9.88854e-06
*RES
1 *9194:ZN *224:12 23.276 
2 *224:12 *9195:I0 30.972 
3 *224:12 *9427:D 4.5 
*END

*D_NET *225 0.00707172
*CONN
*I *9428:D I *D gf180mcu_fd_sc_mcu7t5v0__dffq_1
*I *9199:I0 I *D gf180mcu_fd_sc_mcu7t5v0__mux2_2
*I *9198:ZN O *D gf180mcu_fd_sc_mcu7t5v0__nand2_1
*CAP
1 *9428:D 0
2 *9199:I0 0.00037372
3 *9198:ZN 0.000501662
4 *225:10 0.000875383
5 *9199:I0 *9201:A1 0.00120227
6 *9199:I0 *9205:A1 0
7 *9199:I0 *9207:I0 0.000223084
8 *9199:I0 *9209:A2 0.000585299
9 *9199:I0 *9429:CLK 0.000454126
10 *9199:I0 *381:136 0.000534088
11 *9199:I0 *381:145 0.000668179
12 *9199:I0 *381:156 0.000826405
13 *9199:I0 *415:23 0.000768503
14 *225:10 *9197:A1 0
15 *225:10 *9198:A2 5.90026e-05
*RES
1 *9198:ZN *225:10 7.932 
2 *225:10 *9199:I0 23.172 
3 *225:10 *9428:D 4.5 
*END

*D_NET *226 0.00596639
*CONN
*I *9203:I0 I *D gf180mcu_fd_sc_mcu7t5v0__mux2_2
*I *9429:D I *D gf180mcu_fd_sc_mcu7t5v0__dffq_1
*I *9202:ZN O *D gf180mcu_fd_sc_mcu7t5v0__nand2_1
*CAP
1 *9203:I0 0.000140821
2 *9429:D 9.76143e-05
3 *9202:ZN 0.00039626
4 *226:12 0.000634695
5 *9203:I0 *415:23 0.000425443
6 *9203:I0 *415:34 0.000148497
7 *9203:I0 *446:40 0.00204107
8 *9429:D *9431:CLK 0.000103788
9 *9429:D *415:23 0.000106014
10 *9429:D *446:40 0.000438808
11 *226:12 *9202:A2 0
12 *226:12 *9205:A1 0.000560736
13 *226:12 *9206:A2 0.000679914
14 *226:12 *9209:A2 2.14739e-05
15 *226:12 *9429:CLK 0.000137026
16 *226:12 *9431:CLK 3.42271e-05
*RES
1 *9202:ZN *226:12 13.264 
2 *226:12 *9429:D 10.456 
3 *226:12 *9203:I0 14.304 
*END

*D_NET *227 0.00430474
*CONN
*I *9430:D I *D gf180mcu_fd_sc_mcu7t5v0__dffq_1
*I *9207:I0 I *D gf180mcu_fd_sc_mcu7t5v0__mux2_2
*I *9206:ZN O *D gf180mcu_fd_sc_mcu7t5v0__nand2_1
*CAP
1 *9430:D 0.000376485
2 *9207:I0 0.000858882
3 *9206:ZN 0.000120688
4 *227:6 0.00135605
5 *9207:I0 *9199:I1 2.73715e-06
6 *9207:I0 *9205:A1 5.47866e-05
7 *9207:I0 *9206:A2 0
8 *9207:I0 *9207:S 0.000114669
9 *9207:I0 *9210:A1 4.64756e-05
10 *9207:I0 *386:8 5.50559e-05
11 *9207:I0 *415:23 6.96644e-06
12 *9207:I0 *415:34 7.37782e-05
13 *9207:I0 *415:47 1.2629e-05
14 *9430:D *9205:A1 0.000835845
15 *9430:D *429:68 3.21839e-05
16 *227:6 *9206:A2 7.02352e-05
17 *227:6 *9210:A1 6.41811e-05
18 *9199:I0 *9207:I0 0.000223084
*RES
1 *9206:ZN *227:6 5.644 
2 *227:6 *9207:I0 20.468 
3 *227:6 *9430:D 16.932 
*END

*D_NET *228 0.00497839
*CONN
*I *9211:I0 I *D gf180mcu_fd_sc_mcu7t5v0__mux2_2
*I *9431:D I *D gf180mcu_fd_sc_mcu7t5v0__dffq_1
*I *9210:ZN O *D gf180mcu_fd_sc_mcu7t5v0__nand2_1
*CAP
1 *9211:I0 0.000646547
2 *9431:D 0.00024579
3 *9210:ZN 0.000697947
4 *228:8 0.00159028
5 *9211:I0 *9209:A1 0.000417612
6 *9211:I0 *9211:S 0.000582256
7 *9211:I0 *446:14 0
8 *9431:D *9209:A1 0.000784655
9 *228:8 *9199:S 1.33033e-05
10 *228:8 *9209:A1 0
11 *228:8 *9210:A2 0
*RES
1 *9210:ZN *228:8 13.056 
2 *228:8 *9431:D 12.016 
3 *228:8 *9211:I0 14.824 
*END

*D_NET *229 0.00203982
*CONN
*I *9432:D I *D gf180mcu_fd_sc_mcu7t5v0__dffq_1
*I *9378:Z O *D gf180mcu_fd_sc_mcu7t5v0__mux2_2
*CAP
1 *9432:D 0.000237539
2 *9378:Z 0.000237539
3 *9432:D *420:14 0.000685528
4 *9432:D *514:14 7.30742e-05
5 *9532:I *9432:D 0.000403069
6 *9536:I *9432:D 0.000403069
*RES
1 *9378:Z *9432:D 21.12 
*END

*D_NET *230 0.00475359
*CONN
*I *9433:D I *D gf180mcu_fd_sc_mcu7t5v0__dffq_1
*I *9379:Z O *D gf180mcu_fd_sc_mcu7t5v0__mux2_2
*CAP
1 *9433:D 0.000596071
2 *9379:Z 0.000596071
3 *9433:D *9379:I1 0.000612968
4 *9479:I *9433:D 0.00294848
*RES
1 *9379:Z *9433:D 17.216 
*END

*D_NET *231 0.0101047
*CONN
*I *9434:D I *D gf180mcu_fd_sc_mcu7t5v0__dffq_1
*I *9380:Z O *D gf180mcu_fd_sc_mcu7t5v0__mux2_2
*CAP
1 *9434:D 0.00106993
2 *9380:Z 0.00106993
3 *9434:D *9381:I1 0.000665871
4 *9434:D *9383:I0 0.000124693
5 *9434:D *9437:CLK 0.00315374
6 *9434:D *9593:I 0
7 *9434:D *9594:I 0.000131145
8 *9434:D *393:14 0.000288769
9 *9434:D *422:14 0.0010392
10 *9434:D *513:20 0.00241985
11 *9538:I *9434:D 0.000141549
*RES
1 *9380:Z *9434:D 35.68 
*END

*D_NET *232 0.00280708
*CONN
*I *9435:D I *D gf180mcu_fd_sc_mcu7t5v0__dffq_1
*I *9381:Z O *D gf180mcu_fd_sc_mcu7t5v0__mux2_2
*CAP
1 *9435:D 0.000659973
2 *9381:Z 0.000659973
3 *9435:D *9337:I1 5.59372e-05
4 *9435:D *9337:S 0.000155298
5 *9435:D *9381:I1 7.20551e-05
6 *9435:D *9593:I 0.000481555
7 *9435:D *9594:I 0.000168204
8 *9435:D *378:110 4.1048e-06
9 *9435:D *408:60 1.07369e-05
10 *9435:D *444:18 3.84691e-05
11 *9497:I *9435:D 0.000500772
*RES
1 *9381:Z *9435:D 15.76 
*END

*D_NET *233 0.00337703
*CONN
*I *9436:D I *D gf180mcu_fd_sc_mcu7t5v0__dffq_1
*I *9382:Z O *D gf180mcu_fd_sc_mcu7t5v0__mux2_2
*CAP
1 *9436:D 0.000336292
2 *9382:Z 0.000336292
3 *9436:D *9579:I 0.000863273
4 *9436:D *375:94 0.00111734
5 *9436:D *484:22 0.000408992
6 *9498:I *9436:D 0.000314845
*RES
1 *9382:Z *9436:D 25.696 
*END

*D_NET *234 0.00193762
*CONN
*I *9437:D I *D gf180mcu_fd_sc_mcu7t5v0__dffq_1
*I *9383:Z O *D gf180mcu_fd_sc_mcu7t5v0__mux2_2
*CAP
1 *9437:D 0.000181049
2 *9383:Z 0.000181049
3 *9437:D *9380:I1 0.00133111
4 tl_o[51] *9437:D 9.88907e-05
5 *9482:I *9437:D 8.12504e-06
6 *9535:I *9437:D 0.000137399
*RES
1 *9383:Z *9437:D 21.432 
*END

*D_NET *235 0.00843721
*CONN
*I *9438:D I *D gf180mcu_fd_sc_mcu7t5v0__dffq_1
*I *9384:Z O *D gf180mcu_fd_sc_mcu7t5v0__mux2_2
*CAP
1 *9438:D 0.000957518
2 *9384:Z 0.000957518
3 *9438:D *9599:I 6.35093e-06
4 *9438:D *9613:I 0.000455022
5 *9438:D *375:94 0.0014301
6 *9438:D *610:14 0.00359183
7 tl_o[40] *9438:D 0.000589162
8 *9499:I *9438:D 0.000287319
9 *9509:I *9438:D 0.000154069
10 *4:25 *9438:D 8.31796e-06
*RES
1 *9384:Z *9438:D 35.16 
*END

*D_NET *236 0.0030654
*CONN
*I *9439:D I *D gf180mcu_fd_sc_mcu7t5v0__dffq_1
*I *9385:Z O *D gf180mcu_fd_sc_mcu7t5v0__mux2_2
*CAP
1 *9439:D 0.000294359
2 *9385:Z 0.000294359
3 *9439:D *9216:A1 0.00161821
4 *9439:D *484:22 0.000124423
5 *9439:D *543:16 0.000400495
6 *9439:D *611:12 0.000211436
7 tl_o[53] *9439:D 3.13351e-05
8 tl_o[58] *9439:D 9.0779e-05
*RES
1 *9385:Z *9439:D 23.2 
*END

*D_NET *237 0.00182283
*CONN
*I *9440:D I *D gf180mcu_fd_sc_mcu7t5v0__dffq_1
*I *9386:Z O *D gf180mcu_fd_sc_mcu7t5v0__mux2_2
*CAP
1 *9440:D 0.0004282
2 *9386:Z 0.0004282
3 *9440:D *9129:I 0.000352773
4 *9440:D *9238:A1 2.82429e-05
5 *9440:D *9583:I 6.83697e-05
6 *9440:D *378:146 0.000112844
7 *9440:D *378:159 0.000141331
8 *9440:D *449:32 0.000262868
*RES
1 *9386:Z *9440:D 22.056 
*END

*D_NET *238 0.00227586
*CONN
*I *9441:D I *D gf180mcu_fd_sc_mcu7t5v0__dffq_1
*I *9388:ZN O *D gf180mcu_fd_sc_mcu7t5v0__oai21_1
*CAP
1 *9441:D 0.000193718
2 *9388:ZN 0.000193718
3 *9441:D *9269:A1 0.000152069
4 *9441:D *371:18 0.000868177
5 *9441:D *380:35 0.000501134
6 *9441:D *380:43 0.000367043
*RES
1 *9388:ZN *9441:D 21.328 
*END

*D_NET *239 0.00611823
*CONN
*I *9442:D I *D gf180mcu_fd_sc_mcu7t5v0__dffq_1
*I *9389:Z O *D gf180mcu_fd_sc_mcu7t5v0__mux2_2
*CAP
1 *9442:D 0.00044595
2 *9389:Z 0.00044595
3 *9442:D *9186:A1 0.00244335
4 *9442:D *9346:A1 0
5 *9442:D *9389:I1 0.000160184
6 *9442:D *9578:I 0.000674405
7 *9442:D *367:29 0.000470241
8 *9442:D *372:53 0.000290871
9 *9442:D *599:8 0.000362263
10 *9442:D *613:22 0.000802749
11 tl_o[25] *9442:D 2.22621e-05
*RES
1 *9389:Z *9442:D 27.984 
*END

*D_NET *240 0.00310029
*CONN
*I *9443:D I *D gf180mcu_fd_sc_mcu7t5v0__dffq_1
*I *9390:Z O *D gf180mcu_fd_sc_mcu7t5v0__mux2_2
*CAP
1 *9443:D 0.000370283
2 *9390:Z 0.000370283
3 *9443:D *9283:A1 0.000837901
4 *9443:D *9347:A1 0.000103788
5 *9443:D *9578:I 2.57905e-05
6 *9443:D *9639:I 6.99894e-05
7 *9443:D *380:25 0.000799936
8 *9443:D *380:29 0.00052232
*RES
1 *9390:Z *9443:D 22.68 
*END

*D_NET *241 0.00302289
*CONN
*I *9444:D I *D gf180mcu_fd_sc_mcu7t5v0__dffq_1
*I *9391:Z O *D gf180mcu_fd_sc_mcu7t5v0__mux2_2
*CAP
1 *9444:D 0.000481146
2 *9391:Z 0.000481146
3 *9444:D *9251:A1 0.00117227
4 *9444:D *9445:D 5.13873e-05
5 *9444:D *9473:I 0.000324268
6 *9444:D *9596:I 0.000435183
7 *9444:D *495:14 7.74912e-05
*RES
1 *9391:Z *9444:D 24.448 
*END

*D_NET *242 0.00688041
*CONN
*I *9445:D I *D gf180mcu_fd_sc_mcu7t5v0__dffq_1
*I *9392:Z O *D gf180mcu_fd_sc_mcu7t5v0__mux2_2
*CAP
1 *9445:D 0.00112531
2 *9392:Z 0.00112531
3 *9445:D *9138:A4 0.00133725
4 *9445:D *9251:A1 0
5 *9445:D *9391:S 0.00304099
6 *9445:D *9445:CLK 0
7 *9445:D *9578:I 0
8 *9445:D *9596:I 0
9 *9445:D *9639:I 0.00020015
10 *9444:D *9445:D 5.13873e-05
*RES
1 *9392:Z *9445:D 32.768 
*END

*D_NET *243 0.000699993
*CONN
*I *9446:D I *D gf180mcu_fd_sc_mcu7t5v0__dffq_1
*I *9393:Z O *D gf180mcu_fd_sc_mcu7t5v0__mux2_2
*CAP
1 *9446:D 6.80632e-05
2 *9393:Z 6.80632e-05
3 *9446:D *9253:A1 2.14739e-05
4 *9446:D *460:150 0.000316625
5 *9446:D *484:22 0.000225767
*RES
1 *9393:Z *9446:D 9.936 
*END

*D_NET *244 0.00416375
*CONN
*I *9447:D I *D gf180mcu_fd_sc_mcu7t5v0__dffq_1
*I *9395:ZN O *D gf180mcu_fd_sc_mcu7t5v0__oai21_1
*CAP
1 *9447:D 0.000411696
2 *9395:ZN 0.000411696
3 *9447:D *9342:A1 0.000116466
4 *9447:D *9470:I 0.00068896
5 *9447:D *372:53 0.000399331
6 *9447:D *433:10 0.00124761
7 *9447:D *604:23 0.000887992
*RES
1 *9395:ZN *9447:D 26.424 
*END

*D_NET *245 0.0193225
*CONN
*I *9138:A1 I *D gf180mcu_fd_sc_mcu7t5v0__or4_1
*I *9265:A1 I *D gf180mcu_fd_sc_mcu7t5v0__nand3_4
*I *9312:A1 I *D gf180mcu_fd_sc_mcu7t5v0__nand4_4
*I *9311:A1 I *D gf180mcu_fd_sc_mcu7t5v0__or2_1
*I *9212:B I *D gf180mcu_fd_sc_mcu7t5v0__aoi21_1
*I *9234:A1 I *D gf180mcu_fd_sc_mcu7t5v0__oai21_1
*I *9127:ZN O *D gf180mcu_fd_sc_mcu7t5v0__clkinv_1
*CAP
1 *9138:A1 0.000977169
2 *9265:A1 0.00134939
3 *9312:A1 0.000347129
4 *9311:A1 0.00095459
5 *9212:B 3.31662e-05
6 *9234:A1 8.8166e-05
7 *9127:ZN 0
8 *245:61 0.00116577
9 *245:34 0.00161576
10 *245:14 0.000430776
11 *245:4 0.000524203
12 *9138:A1 *9253:A2 0
13 *9138:A1 *9269:A1 0
14 *9138:A1 *9633:D[0] 0.000120886
15 *9138:A1 *399:18 0.00187176
16 *9138:A1 *512:94 3.86315e-05
17 *9212:B *404:14 3.22108e-05
18 *9234:A1 *9135:A2 0.000721582
19 *9234:A1 *9234:B 5.28381e-05
20 *9234:A1 *370:49 0.00011421
21 *9265:A1 *9312:A4 0.0010392
22 *9265:A1 *460:160 4.53005e-05
23 *9265:A1 *512:94 1.91879e-05
24 *9265:A1 *686:10 0.000289314
25 *9311:A1 *9213:A1 9.22811e-05
26 *9311:A1 *9233:A2 7.13509e-06
27 *9311:A1 *9234:A2 1.61099e-05
28 *9311:A1 *9270:B 0.000545709
29 *9311:A1 *257:18 2.69561e-05
30 *9311:A1 *296:14 0.000293228
31 *9311:A1 *304:18 0.000417144
32 *9311:A1 *332:14 0.000187117
33 *9311:A1 *399:18 3.25206e-05
34 *9311:A1 *407:20 2.19312e-06
35 *9311:A1 *594:83 0.00085588
36 *9312:A1 *9451:RN 0.000500772
37 *9312:A1 *375:69 0.000399736
38 *9312:A1 *407:57 6.64873e-05
39 *9312:A1 *614:10 0.00112378
40 *245:14 *9135:A2 0.00024022
41 *245:14 *9212:A1 0.000593457
42 *245:14 *253:12 4.29477e-05
43 *245:14 *253:25 0.000573426
44 *245:14 *370:49 5.29249e-05
45 *245:14 *404:14 1.78817e-06
46 *245:14 *594:8 3.4596e-05
47 *245:34 *9212:A1 7.31985e-05
48 *245:34 *250:14 8.44565e-06
49 *245:34 *253:25 0.000182208
50 *245:34 *595:66 0.000194925
51 *245:61 *250:14 0.000160202
52 *245:61 *257:18 0.000211436
53 *245:61 *407:20 0.000415294
54 *245:61 *595:66 0.000139186
55 *190:10 *9138:A1 0
*RES
1 *9127:ZN *245:4 4.5 
2 *245:4 *245:14 8.66 
3 *245:14 *9234:A1 10.976 
4 *245:14 *9212:B 9.312 
5 *245:4 *245:34 1.976 
6 *245:34 *9311:A1 21.82 
7 *245:34 *245:61 8.66 
8 *245:61 *9312:A1 14.408 
9 *245:61 *9265:A1 13.16 
10 *9265:A1 *9138:A1 27.152 
*END

*D_NET *246 0.000703314
*CONN
*I *9237:A1 I *D gf180mcu_fd_sc_mcu7t5v0__nor3_1
*I *9128:ZN O *D gf180mcu_fd_sc_mcu7t5v0__clkinv_1
*CAP
1 *9237:A1 9.91097e-05
2 *9128:ZN 9.91097e-05
3 *9237:A1 *438:56 0.000113027
4 *9237:A1 *449:59 0.000272924
5 *9237:A1 *648:34 0.000119143
*RES
1 *9128:ZN *9237:A1 19.248 
*END

*D_NET *247 0.00368659
*CONN
*I *9238:A1 I *D gf180mcu_fd_sc_mcu7t5v0__nand2_1
*I *9129:ZN O *D gf180mcu_fd_sc_mcu7t5v0__clkinv_1
*CAP
1 *9238:A1 0.000982006
2 *9129:ZN 0.000982006
3 *9238:A1 *9225:A1 1.37902e-05
4 *9238:A1 *9225:A2 0.000440975
5 *9238:A1 *9271:A2 0.000266642
6 *9238:A1 *9386:I1 0
7 *9238:A1 *300:24 0.000946434
8 *9238:A1 *367:6 5.6979e-06
9 *9238:A1 *367:27 1.40398e-05
10 *9238:A1 *402:18 6.75152e-06
11 *9440:D *9238:A1 2.82429e-05
*RES
1 *9129:ZN *9238:A1 16.488 
*END

*D_NET *248 0.0162423
*CONN
*I *9239:B1 I *D gf180mcu_fd_sc_mcu7t5v0__aoi22_1
*I *9388:A1 I *D gf180mcu_fd_sc_mcu7t5v0__oai21_1
*I *9262:A1 I *D gf180mcu_fd_sc_mcu7t5v0__aoi21_1
*I *9241:B1 I *D gf180mcu_fd_sc_mcu7t5v0__aoi22_1
*I *9130:ZN O *D gf180mcu_fd_sc_mcu7t5v0__clkinv_1
*CAP
1 *9239:B1 0
2 *9388:A1 0.000336598
3 *9262:A1 0.000170119
4 *9241:B1 0.000463416
5 *9130:ZN 0.000512422
6 *248:29 0.000822495
7 *248:23 0.000358708
8 *248:8 0.00101877
9 *9241:B1 *9231:A1 3.4596e-05
10 *9241:B1 *9236:A2 7.95519e-06
11 *9241:B1 *9241:A1 0.000188231
12 *9241:B1 *9243:A1 0.000424112
13 *9241:B1 *9245:A1 0.000324938
14 *9241:B1 *9245:B 0.00052557
15 *9241:B1 *9257:B1 7.59811e-05
16 *9241:B1 *296:14 0
17 *9241:B1 *380:57 6.20162e-05
18 *9241:B1 *513:24 6.8199e-07
19 *9241:B1 *530:22 0.00118871
20 *9262:A1 *9250:B 0.000331165
21 *9262:A1 *9262:B 0.000113568
22 *9262:A1 *506:20 0.000243153
23 *9388:A1 *9282:A2 0.00144126
24 *9388:A1 *9666:I 0.000138675
25 *9388:A1 *375:92 0.000647835
26 *9388:A1 *438:119 6.57735e-05
27 *9388:A1 *449:129 5.90237e-05
28 *248:8 *9228:A1 4.26506e-05
29 *248:8 *9239:A2 4.6157e-05
30 *248:8 *9260:A2 0
31 *248:8 *380:57 0.00180657
32 *248:8 *512:26 0.000225767
33 *248:8 *530:22 9.60015e-05
34 *248:23 *380:57 4.15898e-06
35 *248:29 *9666:I 0.000162518
36 *248:29 *375:74 0.000894481
37 *248:29 *375:92 0.000149948
38 *248:29 *380:57 0.000182695
39 *248:29 *438:29 3.40368e-05
40 *248:29 *438:119 0.00260651
41 tl_o[20] *248:8 7.992e-05
42 *128:26 *9241:B1 0.000355119
*RES
1 *9130:ZN *248:8 10.74 
2 *248:8 *9241:B1 19.948 
3 *248:8 *248:23 0.312 
4 *248:23 *248:29 12.196 
5 *248:29 *9262:A1 10.976 
6 *248:29 *9388:A1 13.888 
7 *248:23 *9239:B1 4.5 
*END

*D_NET *249 0.00756743
*CONN
*I *9140:A2 I *D gf180mcu_fd_sc_mcu7t5v0__or2_1
*I *9139:A2 I *D gf180mcu_fd_sc_mcu7t5v0__nor2_1
*I *9268:I1 I *D gf180mcu_fd_sc_mcu7t5v0__mux2_2
*I *9131:ZN O *D gf180mcu_fd_sc_mcu7t5v0__nand2_1
*CAP
1 *9140:A2 0.000104572
2 *9139:A2 0
3 *9268:I1 0.000808456
4 *9131:ZN 0.000357667
5 *249:16 0.000973204
6 *249:12 0.000626988
7 *9140:A2 *593:12 5.3503e-05
8 *9268:I1 *9128:I 0.000979229
9 *9268:I1 *9266:A2 6.97042e-05
10 *9268:I1 *380:229 0.000159563
11 *9268:I1 *407:57 2.59677e-05
12 *9268:I1 *438:72 0
13 *249:12 *9131:A1 2.32059e-05
14 *249:12 *9132:A2 4.16532e-05
15 *249:12 *9312:A2 4.29477e-05
16 *249:12 *299:16 0.000560736
17 *249:12 *380:207 0
18 *249:12 *438:56 5.78216e-06
19 *249:12 *449:82 0.000473944
20 *249:12 *593:12 0.000739119
21 *249:16 *9375:I1 0.000127467
22 *249:16 *256:12 0.000794728
23 *249:16 *299:16 2.90152e-05
24 *249:16 *449:82 0.000569975
*RES
1 *9131:ZN *249:12 13.472 
2 *249:12 *249:16 7.516 
3 *249:16 *9268:I1 19.74 
4 *249:16 *9139:A2 4.5 
5 *249:12 *9140:A2 9.728 
*END

*D_NET *250 0.00695016
*CONN
*I *9133:I I *D gf180mcu_fd_sc_mcu7t5v0__clkinv_1
*I *9270:B I *D gf180mcu_fd_sc_mcu7t5v0__aoi21_1
*I *9212:A1 I *D gf180mcu_fd_sc_mcu7t5v0__aoi21_1
*I *9132:ZN O *D gf180mcu_fd_sc_mcu7t5v0__aoi21_1
*CAP
1 *9133:I 0
2 *9270:B 0.000292436
3 *9212:A1 0.000438272
4 *9132:ZN 0.000234193
5 *250:14 0.000998633
6 *250:8 0.000502118
7 *9212:A1 *257:18 0.00104971
8 *9212:A1 *404:14 3.35429e-05
9 *9270:B *9136:A2 0.00047924
10 *9270:B *399:18 4.68497e-05
11 *9270:B *404:14 4.49718e-05
12 *250:8 *257:18 0.000893553
13 *250:14 *9136:A1 7.53223e-05
14 *250:14 *257:18 0.000480313
15 *9311:A1 *9270:B 0.000545709
16 *245:14 *9212:A1 0.000593457
17 *245:34 *9212:A1 7.31985e-05
18 *245:34 *250:14 8.44565e-06
19 *245:61 *250:14 0.000160202
*RES
1 *9132:ZN *250:8 7.204 
2 *250:8 *250:14 2.808 
3 *250:14 *9212:A1 9.388 
4 *250:14 *9270:B 16.412 
5 *250:8 *9133:I 4.5 
*END

*D_NET *251 0.000624196
*CONN
*I *9136:A1 I *D gf180mcu_fd_sc_mcu7t5v0__nand2_1
*I *9133:ZN O *D gf180mcu_fd_sc_mcu7t5v0__clkinv_1
*CAP
1 *9136:A1 0.000208905
2 *9133:ZN 0.000208905
3 *9136:A1 *9136:A2 2.81522e-06
4 *9136:A1 *380:207 4.4504e-06
5 *9136:A1 *407:20 0.000123798
6 *250:14 *9136:A1 7.53223e-05
*RES
1 *9133:ZN *9136:A1 10.664 
*END

*D_NET *252 0.00337626
*CONN
*I *9135:A2 I *D gf180mcu_fd_sc_mcu7t5v0__nor2_1
*I *9134:ZN O *D gf180mcu_fd_sc_mcu7t5v0__nand2_1
*CAP
1 *9135:A2 0.000176485
2 *9134:ZN 0.000176485
3 *9135:A2 *9234:B 3.94674e-05
4 *9135:A2 *253:12 0.000271774
5 *9135:A2 *370:49 1.27834e-05
6 *9135:A2 *380:47 0.00163783
7 *9135:A2 *594:83 9.96348e-05
8 *9234:A1 *9135:A2 0.000721582
9 *245:14 *9135:A2 0.00024022
*RES
1 *9134:ZN *9135:A2 22.472 
*END

*D_NET *253 0.00623094
*CONN
*I *9136:A2 I *D gf180mcu_fd_sc_mcu7t5v0__nand2_1
*I *9270:A1 I *D gf180mcu_fd_sc_mcu7t5v0__aoi21_1
*I *9212:A2 I *D gf180mcu_fd_sc_mcu7t5v0__aoi21_1
*I *9135:ZN O *D gf180mcu_fd_sc_mcu7t5v0__nor2_1
*CAP
1 *9136:A2 0.000339642
2 *9270:A1 3.6366e-05
3 *9212:A2 0
4 *9135:ZN 0.000100366
5 *253:25 0.000720271
6 *253:12 0.00044463
7 *9136:A2 *9450:D 0.000212069
8 *9136:A2 *380:207 0.000141602
9 *9136:A2 *404:14 2.14894e-05
10 *253:12 *256:12 5.36847e-05
11 *253:12 *370:49 7.01058e-05
12 *253:12 *380:47 3.646e-05
13 *253:12 *594:8 4.07478e-05
14 *253:25 *256:12 0.000357553
15 *253:25 *399:18 0.000972013
16 *253:25 *595:31 0.000178347
17 *253:25 *595:33 0.000849394
18 *253:25 *595:66 0.000103788
19 *9135:A2 *253:12 0.000271774
20 *9136:A1 *9136:A2 2.81522e-06
21 *9270:B *9136:A2 0.00047924
22 *245:14 *253:12 4.29477e-05
23 *245:14 *253:25 0.000573426
24 *245:34 *253:25 0.000182208
*RES
1 *9135:ZN *253:12 14.956 
2 *253:12 *9212:A2 4.5 
3 *253:12 *253:25 14.824 
4 *253:25 *9270:A1 4.812 
5 *253:25 *9136:A2 8.036 
*END

*D_NET *254 0.00843013
*CONN
*I *9138:A4 I *D gf180mcu_fd_sc_mcu7t5v0__or4_1
*I *9137:ZN O *D gf180mcu_fd_sc_mcu7t5v0__nand2_1
*CAP
1 *9138:A4 0.00189277
2 *9137:ZN 0.00189277
3 *9138:A4 *9138:A3 0.00129195
4 *9138:A4 *9252:A2 0
5 *9138:A4 *9253:A1 0.000169324
6 *9138:A4 *9255:B 0.000169324
7 *9138:A4 *9263:A2 0.000861526
8 *9138:A4 *9282:A2 0.00014999
9 *9138:A4 *9391:S 5.95376e-05
10 *9138:A4 *9596:I 1.0671e-05
11 *9138:A4 *375:92 0.000241749
12 *9138:A4 *506:20 0.000156397
13 *9138:A4 *594:129 0.000196874
14 *9445:D *9138:A4 0.00133725
*RES
1 *9137:ZN *9138:A4 37.24 
*END

*D_NET *255 0.0253686
*CONN
*I *9475:I I *D gf180mcu_fd_sc_mcu7t5v0__dlyd_1
*I *9474:I I *D gf180mcu_fd_sc_mcu7t5v0__dlyd_1
*I *9138:Z O *D gf180mcu_fd_sc_mcu7t5v0__or4_1
*CAP
1 *9475:I 0.000331711
2 *9474:I 0.00230992
3 *9138:Z 0.00169816
4 *255:14 0.00433979
5 *9474:I *9130:I 0.000994572
6 *9474:I *9215:A1 5.43549e-05
7 *9474:I *9226:A2 5.74667e-05
8 *9474:I *9250:A3 0.00174193
9 *9474:I *9262:A2 0.00138961
10 *9474:I *9387:A2 0.000961997
11 *9474:I *9390:S 0.00149059
12 *9474:I *9592:I 0.000547167
13 *9474:I *9639:I 2.19471e-05
14 *9474:I *295:20 0.000530431
15 *9474:I *514:14 2.6481e-05
16 *9475:I *9283:A1 0.000731452
17 *9475:I *9390:I1 0.000125283
18 *9475:I *9390:S 0.00365715
19 *9475:I *380:29 0.00027922
20 *255:14 *9282:A2 0.000245715
21 *255:14 *9584:I 7.95235e-06
22 *255:14 *329:12 0.000245715
23 tl_o[49] *9474:I 0.000282445
24 tl_o[50] *9474:I 0.000282445
25 tl_o[58] *9474:I 0.00140893
26 tl_o[58] *9475:I 0.000963623
27 *9532:I *9474:I 0.000458456
28 *9539:I *9474:I 0.000184043
*RES
1 *9138:Z *255:14 26.736 
2 *255:14 *9474:I 46.912 
3 *255:14 *9475:I 20.336 
*END

*D_NET *256 0.0382166
*CONN
*I *9473:I I *D gf180mcu_fd_sc_mcu7t5v0__dlyd_1
*I *9472:I I *D gf180mcu_fd_sc_mcu7t5v0__dlyd_1
*I *9139:ZN O *D gf180mcu_fd_sc_mcu7t5v0__nor2_1
*CAP
1 *9473:I 0.00187534
2 *9472:I 0.00127259
3 *9139:ZN 0.00140223
4 *256:12 0.00455016
5 *9472:I *9227:A2 0
6 *9472:I *9228:A2 3.29691e-05
7 *9472:I *9239:A2 0.00202781
8 *9472:I *9249:A2 9.52676e-05
9 *9472:I *9383:I0 0.00377031
10 *9472:I *300:24 0.00150041
11 *9472:I *378:159 0.0012171
12 *9472:I *401:20 0.000425092
13 *9472:I *449:32 0.000547348
14 *9472:I *460:110 0
15 *9472:I *512:26 0.000469862
16 *9473:I *9138:A3 0.000113907
17 *9473:I *9246:A2 0.000188241
18 *9473:I *9249:A2 5.51333e-05
19 *9473:I *9252:A1 0.000241473
20 *9473:I *9252:A2 0.000294461
21 *9473:I *9388:A2 0.000202312
22 *9473:I *9389:S 0.000299917
23 *9473:I *9573:I 8.5657e-05
24 *9473:I *9578:I 0.00412909
25 *9473:I *9584:I 0.0019678
26 *9473:I *9596:I 2.99808e-05
27 *9473:I *9666:I 0.000269338
28 *9473:I *438:125 0.00201791
29 *9473:I *506:20 0.000392365
30 *9473:I *512:26 0.000210759
31 *9473:I *602:12 7.00831e-05
32 *256:12 *9131:A1 0.000663752
33 *256:12 *9135:A1 1.65112e-05
34 *256:12 *9265:A2 0.000377895
35 *256:12 *9375:I1 0.00197462
36 *256:12 *9451:RN 0.000141323
37 *256:12 *257:18 0.00014878
38 *256:12 *299:16 0
39 *256:12 *375:69 3.85773e-05
40 *256:12 *404:14 0
41 *256:12 *407:20 4.18157e-05
42 *256:12 *449:82 2.14739e-05
43 *256:12 *506:33 0.000143639
44 *256:12 *594:8 7.58291e-05
45 *256:12 *595:66 0.00219341
46 *256:12 *614:23 4.49307e-05
47 tl_o[54] *256:12 0.00100258
48 *9444:D *9473:I 0.000324268
49 *9545:I *256:12 4.63426e-05
50 *249:16 *256:12 0.000794728
51 *253:12 *256:12 5.36847e-05
52 *253:25 *256:12 0.000357553
*RES
1 *9139:ZN *256:12 28.24 
2 *256:12 *9472:I 32.296 
3 *256:12 *9473:I 36.456 
*END

*D_NET *257 0.0447071
*CONN
*I *9471:I I *D gf180mcu_fd_sc_mcu7t5v0__dlyd_1
*I *9470:I I *D gf180mcu_fd_sc_mcu7t5v0__dlyd_1
*I *9140:Z O *D gf180mcu_fd_sc_mcu7t5v0__or2_1
*CAP
1 *9471:I 0.00174316
2 *9470:I 0.00201362
3 *9140:Z 0.000782241
4 *257:18 0.00453902
5 *9470:I *9231:A1 0
6 *9470:I *9234:B 0.00205471
7 *9470:I *9238:A2 0.000843474
8 *9470:I *9241:B2 0.000289665
9 *9470:I *9257:B1 0.000618205
10 *9470:I *9260:A2 0.000312375
11 *9470:I *9311:A2 0.000315749
12 *9470:I *9342:A1 0.000132553
13 *9470:I *9559:I 0.000441747
14 *9470:I *9655:I 0.000305529
15 *9470:I *367:29 0.000640099
16 *9470:I *396:18 8.82089e-05
17 *9470:I *422:85 0.000847612
18 *9470:I *432:17 0.00196994
19 *9470:I *513:20 0.000482936
20 *9470:I *595:33 0
21 *9470:I *604:23 0.000173459
22 *9471:I *9186:A1 0.000559677
23 *9471:I *9253:A2 0.00751946
24 *9471:I *9254:A3 0.000648752
25 *9471:I *9265:A3 8.84878e-05
26 *9471:I *9269:A1 0.000122984
27 *9471:I *9354:A1 2.6118e-05
28 *9471:I *9354:A2 8.2087e-05
29 *9471:I *9354:A3 3.4596e-05
30 *9471:I *9633:D[2] 3.41079e-05
31 *9471:I *9664:I 0.000881035
32 *9471:I *258:53 0.000411853
33 *9471:I *367:29 0.00409299
34 *9471:I *372:53 0.00099931
35 *9471:I *466:14 0.00279346
36 *9471:I *506:20 0.000499111
37 *9471:I *595:29 0
38 *9471:I *595:31 0
39 *9471:I *595:33 0
40 *257:18 *9131:A1 0.000623004
41 *257:18 *9132:A2 0.000105297
42 *257:18 *9312:A2 5.63044e-06
43 *257:18 *299:16 2.14647e-05
44 *257:18 *404:14 0.00162224
45 *257:18 *407:20 0.000108754
46 *257:18 *595:66 0.00118571
47 tl_o[4] *9470:I 1.06979e-05
48 *9212:A1 *257:18 0.00104971
49 *9311:A1 *257:18 2.69561e-05
50 *9447:D *9470:I 0.00068896
51 *128:26 *9470:I 0.000128132
52 *222:6 *9471:I 8.11931e-06
53 *245:61 *257:18 0.000211436
54 *250:8 *257:18 0.000893553
55 *250:14 *257:18 0.000480313
56 *256:12 *257:18 0.00014878
*RES
1 *9140:Z *257:18 30.064 
2 *257:18 *9470:I 43.168 
3 *257:18 *9471:I 48.624 
*END

*D_NET *258 0.0837708
*CONN
*I *9142:A3 I *D gf180mcu_fd_sc_mcu7t5v0__nand3_1
*I *9370:A3 I *D gf180mcu_fd_sc_mcu7t5v0__nand3_1
*I *9366:A3 I *D gf180mcu_fd_sc_mcu7t5v0__nand3_1
*I *9362:A3 I *D gf180mcu_fd_sc_mcu7t5v0__nand3_1
*I *9358:A3 I *D gf180mcu_fd_sc_mcu7t5v0__nand3_1
*I *9354:A3 I *D gf180mcu_fd_sc_mcu7t5v0__nand3_1
*I *9350:A3 I *D gf180mcu_fd_sc_mcu7t5v0__nand3_1
*I *9346:A3 I *D gf180mcu_fd_sc_mcu7t5v0__nand3_1
*I *9141:Z O *D gf180mcu_fd_sc_mcu7t5v0__and2_1
*CAP
1 *9142:A3 3.09668e-05
2 *9370:A3 0
3 *9366:A3 0
4 *9362:A3 0
5 *9358:A3 0
6 *9354:A3 0.000150887
7 *9350:A3 0
8 *9346:A3 0
9 *9141:Z 0.00215233
10 *258:80 4.62498e-05
11 *258:71 8.22965e-05
12 *258:62 0.00108192
13 *258:53 0.00147071
14 *258:40 0.000646124
15 *258:29 0.000260611
16 *258:20 0.000678507
17 *258:18 0.00260965
18 *9142:A3 *9142:A2 4.87151e-05
19 *9142:A3 *9366:A1 0.000735676
20 *9142:A3 *9370:A1 0.00137812
21 *9142:A3 *440:61 0.000155298
22 *9354:A3 *9354:A2 0.000128567
23 *9354:A3 *9633:D[2] 0.000242796
24 *258:18 *9269:A1 0.000246571
25 *258:18 *9393:I0 0.000125283
26 *258:18 *281:16 9.41493e-05
27 *258:18 *370:49 0.000271774
28 *258:18 *380:43 4.29362e-05
29 *258:18 *412:43 0
30 *258:18 *448:67 0.000601731
31 *258:18 *512:94 0.000179518
32 *258:18 *559:18 0.000288535
33 *258:20 *9346:A1 0.00389682
34 *258:20 *9346:A2 0.000208806
35 *258:20 *370:49 0.00159007
36 *258:20 *371:26 0.000685709
37 *258:20 *380:35 0.00560656
38 *258:20 *380:43 0.00037585
39 *258:20 *439:16 0.000763218
40 *258:29 *9346:A2 0.00140813
41 *258:29 *370:49 7.29199e-05
42 *258:29 *370:55 0.00282283
43 *258:29 *371:26 0.000234553
44 *258:29 *436:10 0.000543548
45 *258:29 *439:16 0.000132089
46 *258:40 *370:55 0.000271764
47 *258:40 *371:26 5.31759e-05
48 *258:53 *9186:A1 0.000498827
49 *258:53 *9633:D[2] 0.000112366
50 *258:53 *440:34 0.00150311
51 *258:53 *466:14 0.000765248
52 *258:53 *468:18 0.00161694
53 *258:62 *440:34 4.87151e-05
54 *258:62 *440:43 0.0277433
55 *258:62 *457:10 0.000777489
56 *258:62 *464:12 0.00511827
57 *258:62 *466:14 0.00341548
58 *258:62 *468:18 0.000795773
59 *258:71 *9362:A1 0.00352914
60 *258:71 *440:43 0.000167045
61 *258:71 *440:52 0.00369325
62 *258:80 *9362:A1 0.000435879
63 *258:80 *9366:A1 7.29199e-05
64 *258:80 *440:52 0.000155298
65 *258:80 *440:61 0.000459373
66 *9471:I *9354:A3 3.4596e-05
67 *9471:I *258:53 0.000411853
*RES
1 *9141:Z *258:18 35.68 
2 *258:18 *258:20 20.072 
3 *258:20 *9346:A3 9 
4 *258:20 *258:29 7.8 
5 *258:29 *9350:A3 9 
6 *258:29 *258:40 5.228 
7 *258:40 *9354:A3 6.268 
8 *258:40 *258:53 16.772 
9 *258:53 *9358:A3 9 
10 *258:53 *258:62 69.992 
11 *258:62 *9362:A3 9 
12 *258:62 *258:71 9.672 
13 *258:71 *9366:A3 9 
14 *258:71 *258:80 1.56 
15 *258:80 *9370:A3 9 
16 *258:80 *9142:A3 13.264 
*END

*D_NET *259 0.00555302
*CONN
*I *9144:A1 I *D gf180mcu_fd_sc_mcu7t5v0__nand2_1
*I *9142:ZN O *D gf180mcu_fd_sc_mcu7t5v0__nand3_1
*CAP
1 *9144:A1 0.00142022
2 *9142:ZN 0.00142022
3 *9144:A1 *9142:A1 4.63309e-05
4 *9144:A1 *9142:A2 9.76253e-05
5 *9144:A1 *9143:A1 0.000199988
6 *9144:A1 *9372:A1 0.00236864
*RES
1 *9142:ZN *9144:A1 32.352 
*END

*D_NET *260 0.00012122
*CONN
*I *9144:A2 I *D gf180mcu_fd_sc_mcu7t5v0__nand2_1
*I *9143:ZN O *D gf180mcu_fd_sc_mcu7t5v0__nand2_1
*CAP
1 *9144:A2 6.06099e-05
2 *9143:ZN 6.06099e-05
*RES
1 *9143:ZN *9144:A2 9.52 
*END

*D_NET *261 0.111128
*CONN
*I *9175:A3 I *D gf180mcu_fd_sc_mcu7t5v0__nand3_1
*I *9167:A3 I *D gf180mcu_fd_sc_mcu7t5v0__nand3_1
*I *9163:A3 I *D gf180mcu_fd_sc_mcu7t5v0__nand3_1
*I *9159:A3 I *D gf180mcu_fd_sc_mcu7t5v0__nand3_1
*I *9151:A3 I *D gf180mcu_fd_sc_mcu7t5v0__nand3_1
*I *9147:A3 I *D gf180mcu_fd_sc_mcu7t5v0__nand3_1
*I *9155:A3 I *D gf180mcu_fd_sc_mcu7t5v0__nand3_1
*I *9171:A3 I *D gf180mcu_fd_sc_mcu7t5v0__nand3_1
*I *9146:Z O *D gf180mcu_fd_sc_mcu7t5v0__and2_1
*CAP
1 *9175:A3 0.000199166
2 *9167:A3 0
3 *9163:A3 7.24243e-05
4 *9159:A3 3.02025e-05
5 *9151:A3 0
6 *9147:A3 0.00056835
7 *9155:A3 0.000102446
8 *9171:A3 0
9 *9146:Z 0.00229134
10 *261:58 0.000789158
11 *261:43 0.000951105
12 *261:41 0.00179144
13 *261:39 0.00155164
14 *261:35 0.000817138
15 *261:24 0.000960681
16 *261:18 0.00253005
17 *261:10 0.0134592
18 *261:8 0.0139091
19 *9147:A3 *9147:A2 0.00033473
20 *9147:A3 *9151:A1 7.87395e-06
21 *9147:A3 *9153:A1 1.22504e-05
22 *9147:A3 *9153:A2 0
23 *9147:A3 *9157:A1 0
24 *9147:A3 *434:50 8.59425e-06
25 *9155:A3 *9155:A1 5.36452e-06
26 *9155:A3 *9157:A1 2.73715e-06
27 *9159:A3 *9161:A1 0.000113027
28 *9163:A3 *9165:A1 6.32895e-05
29 *9175:A3 *9177:A1 0.000137143
30 *9175:A3 *9178:I1 0
31 *261:18 *9177:A2 0.000159517
32 *261:18 *9178:I1 0
33 *261:18 *9637:I 0
34 *261:18 *9643:I 0
35 *261:18 *413:14 0.000202
36 *261:18 *435:14 0
37 *261:18 *557:10 0
38 *261:24 *413:14 0
39 *261:24 *413:18 0.00329031
40 *261:24 *434:12 0.0010303
41 *261:24 *443:22 6.16017e-05
42 *261:24 *443:41 0.000401482
43 *261:24 *557:10 0.000554953
44 *261:35 *9167:A1 0.00290543
45 *261:35 *9169:A1 5.469e-05
46 *261:35 *9171:A1 5.63044e-06
47 *261:35 *9171:A2 3.6012e-05
48 *261:35 *9634:D[4] 5.88619e-05
49 *261:35 *9645:I 0.00436436
50 *261:35 *330:10 0.000199988
51 *261:35 *330:25 0.000454018
52 *261:35 *434:25 0.0134365
53 *261:35 *434:29 0.000167045
54 *261:35 *443:41 5.71865e-05
55 *261:39 *9169:A1 0.00276356
56 *261:39 *434:29 0.00639007
57 *261:39 *434:31 7.14691e-05
58 *261:41 *9169:A1 0.00110169
59 *261:41 *330:46 0.003289
60 *261:41 *434:31 0.0188153
61 *261:41 *434:46 6.17392e-05
62 *261:43 *434:46 0.00124167
63 *261:58 *434:46 0.000241749
64 *261:58 *434:50 0.000939953
65 *9174:I0 *261:35 0
66 *9178:I0 *261:24 0
67 *9292:A3 *261:10 0.00111873
68 *9455:I *261:10 0.000102578
69 *9565:I *261:10 0
70 *3:54 *261:8 0.00350273
71 *3:54 *261:10 0.000350032
72 *3:61 *261:10 0.00256051
73 *191:10 *261:10 0
74 *220:10 *261:18 0.000428493
75 *220:10 *261:24 0
*RES
1 *9146:Z *261:8 28.316 
2 *261:8 *261:10 89.024 
3 *261:10 *261:18 26.056 
4 *261:18 *261:24 20.752 
5 *261:24 *9171:A3 4.5 
6 *261:24 *261:35 40.068 
7 *261:35 *261:39 17.264 
8 *261:39 *261:41 49.608 
9 *261:41 *261:43 7.8 
10 *261:43 *9155:A3 9.52 
11 *261:43 *261:58 7.828 
12 *261:58 *9147:A3 19.116 
13 *261:58 *9151:A3 4.5 
14 *261:41 *9159:A3 9.312 
15 *261:39 *9163:A3 9.52 
16 *261:35 *9167:A3 9 
17 *261:18 *9175:A3 5.852 
*END

*D_NET *262 0.000744452
*CONN
*I *9149:A1 I *D gf180mcu_fd_sc_mcu7t5v0__nand2_1
*I *9147:ZN O *D gf180mcu_fd_sc_mcu7t5v0__nand3_1
*CAP
1 *9149:A1 0.000372226
2 *9147:ZN 0.000372226
*RES
1 *9147:ZN *9149:A1 11.496 
*END

*D_NET *263 0.00406283
*CONN
*I *9149:A2 I *D gf180mcu_fd_sc_mcu7t5v0__nand2_1
*I *9148:ZN O *D gf180mcu_fd_sc_mcu7t5v0__nand2_1
*CAP
1 *9149:A2 0.000851121
2 *9148:ZN 0.000851121
3 *9149:A2 *9148:A2 0.000273397
4 *9149:A2 *9152:A1 0
5 *9149:A2 *442:25 0.000605719
6 *9158:I0 *9149:A2 0.000784644
7 *9418:D *9149:A2 0
8 *214:10 *9149:A2 5.21402e-05
9 *215:8 *9149:A2 0.000644685
*RES
1 *9148:ZN *9149:A2 27.152 
*END

*D_NET *264 0.000961565
*CONN
*I *9153:A1 I *D gf180mcu_fd_sc_mcu7t5v0__nand2_1
*I *9151:ZN O *D gf180mcu_fd_sc_mcu7t5v0__nand3_1
*CAP
1 *9153:A1 0.000474658
2 *9151:ZN 0.000474658
3 *9147:A3 *9153:A1 1.22504e-05
*RES
1 *9151:ZN *9153:A1 12.12 
*END

*D_NET *265 0.00100031
*CONN
*I *9153:A2 I *D gf180mcu_fd_sc_mcu7t5v0__nand2_1
*I *9152:ZN O *D gf180mcu_fd_sc_mcu7t5v0__nand2_1
*CAP
1 *9153:A2 0.000376433
2 *9152:ZN 0.000376433
3 *9153:A2 *9152:A1 4.07478e-05
4 *9153:A2 *9157:A1 0.000156876
5 *9153:A2 *442:25 0
6 *9147:A3 *9153:A2 0
7 *215:8 *9153:A2 4.98252e-05
*RES
1 *9152:ZN *9153:A2 21.328 
*END

*D_NET *266 0.00187235
*CONN
*I *9157:A1 I *D gf180mcu_fd_sc_mcu7t5v0__nand2_1
*I *9155:ZN O *D gf180mcu_fd_sc_mcu7t5v0__nand3_1
*CAP
1 *9157:A1 0.000721113
2 *9155:ZN 0.000721113
3 *9157:A1 *9157:A2 0.000252873
4 *9157:A1 *442:25 1.76416e-05
5 *9147:A3 *9157:A1 0
6 *9153:A2 *9157:A1 0.000156876
7 *9155:A3 *9157:A1 2.73715e-06
8 *214:10 *9157:A1 0
*RES
1 *9155:ZN *9157:A1 23.72 
*END

*D_NET *267 0.00271752
*CONN
*I *9157:A2 I *D gf180mcu_fd_sc_mcu7t5v0__nand2_1
*I *9156:ZN O *D gf180mcu_fd_sc_mcu7t5v0__nand2_1
*CAP
1 *9157:A2 0.000762623
2 *9156:ZN 0.000762623
3 *9157:A2 *9152:A2 0
4 *9157:A2 *9156:A1 1.12327e-05
5 *9157:A2 *9156:A2 0.000113016
6 *9157:A2 *425:42 0.000169324
7 *9157:A2 *442:25 0.000532799
8 *9157:A1 *9157:A2 0.000252873
9 *9419:D *9157:A2 0.000113027
*RES
1 *9156:ZN *9157:A2 25.176 
*END

*D_NET *268 0.00312438
*CONN
*I *9161:A1 I *D gf180mcu_fd_sc_mcu7t5v0__nand2_1
*I *9159:ZN O *D gf180mcu_fd_sc_mcu7t5v0__nand3_1
*CAP
1 *9161:A1 0.00115213
2 *9159:ZN 0.00115213
3 *9161:A1 *9159:A1 1.91996e-05
4 *9161:A1 *434:35 0.000105621
5 *9161:A1 *434:46 0.000150699
6 *9161:A1 *442:23 6.35093e-06
7 *9161:A1 *442:25 0.000425222
8 *9159:A3 *9161:A1 0.000113027
*RES
1 *9159:ZN *9161:A1 27.152 
*END

*D_NET *269 0.00209129
*CONN
*I *9161:A2 I *D gf180mcu_fd_sc_mcu7t5v0__nand2_1
*I *9160:ZN O *D gf180mcu_fd_sc_mcu7t5v0__nand2_1
*CAP
1 *9161:A2 0.000273759
2 *9160:ZN 0.000273759
3 *9161:A2 *9160:A1 0
4 *9161:A2 *379:73 0.000554952
5 *9161:A2 *425:42 0.000512649
6 *216:10 *9161:A2 0.000476175
*RES
1 *9160:ZN *9161:A2 21.328 
*END

*D_NET *270 0.0136213
*CONN
*I *9165:A1 I *D gf180mcu_fd_sc_mcu7t5v0__nand2_1
*I *9163:ZN O *D gf180mcu_fd_sc_mcu7t5v0__nand3_1
*CAP
1 *9165:A1 0.00195419
2 *9163:ZN 0.00195419
3 *9165:A1 *9163:A1 3.65102e-05
4 *9165:A1 *9163:A2 0.000106926
5 *9165:A1 *413:28 0
6 *9165:A1 *434:31 0.00950615
7 *9163:A3 *9165:A1 6.32895e-05
*RES
1 *9163:ZN *9165:A1 46.392 
*END

*D_NET *271 0.00119083
*CONN
*I *9165:A2 I *D gf180mcu_fd_sc_mcu7t5v0__nand2_1
*I *9164:ZN O *D gf180mcu_fd_sc_mcu7t5v0__nand2_1
*CAP
1 *9165:A2 0.000375126
2 *9164:ZN 0.000375126
3 *9165:A2 *9164:A1 1.71326e-05
4 *9165:A2 *379:58 8.80995e-05
5 *9165:A2 *413:28 0.000335348
*RES
1 *9164:ZN *9165:A2 22.16 
*END

*D_NET *272 0.0161743
*CONN
*I *9169:A1 I *D gf180mcu_fd_sc_mcu7t5v0__nand2_1
*I *9167:ZN O *D gf180mcu_fd_sc_mcu7t5v0__nand3_1
*CAP
1 *9169:A1 0.00101261
2 *9167:ZN 0.00101261
3 *9169:A1 *9634:D[4] 0.00267493
4 *9169:A1 *330:46 0.00755424
5 *261:35 *9169:A1 5.469e-05
6 *261:39 *9169:A1 0.00276356
7 *261:41 *9169:A1 0.00110169
*RES
1 *9167:ZN *9169:A1 47.952 
*END

*D_NET *273 0.00128781
*CONN
*I *9169:A2 I *D gf180mcu_fd_sc_mcu7t5v0__nand2_1
*I *9168:ZN O *D gf180mcu_fd_sc_mcu7t5v0__nand2_1
*CAP
1 *9169:A2 0.000373527
2 *9168:ZN 0.000373527
3 *9169:A2 *413:28 0.000335348
4 *9169:A2 *425:10 0.000187202
5 *9169:A2 *425:18 1.8209e-05
*RES
1 *9168:ZN *9169:A2 22.16 
*END

*D_NET *274 0.000169708
*CONN
*I *9173:A1 I *D gf180mcu_fd_sc_mcu7t5v0__nand2_1
*I *9171:ZN O *D gf180mcu_fd_sc_mcu7t5v0__nand3_1
*CAP
1 *9173:A1 8.48539e-05
2 *9171:ZN 8.48539e-05
3 *9173:A1 *9634:D[6] 0
*RES
1 *9171:ZN *9173:A1 9.728 
*END

*D_NET *275 0.00212906
*CONN
*I *9173:A2 I *D gf180mcu_fd_sc_mcu7t5v0__nand2_1
*I *9172:ZN O *D gf180mcu_fd_sc_mcu7t5v0__nand2_1
*CAP
1 *9173:A2 0.000847791
2 *9172:ZN 0.000847791
3 *9173:A2 *9172:A1 0
4 *9173:A2 *9172:A2 0
5 *9173:A2 *425:8 8.16884e-06
6 *9173:A2 *425:10 0.000180936
7 *9174:I0 *9173:A2 4.67771e-06
8 *9422:D *9173:A2 0.000239699
*RES
1 *9172:ZN *9173:A2 15.552 
*END

*D_NET *276 0.000629827
*CONN
*I *9177:A1 I *D gf180mcu_fd_sc_mcu7t5v0__nand2_1
*I *9175:ZN O *D gf180mcu_fd_sc_mcu7t5v0__nand3_1
*CAP
1 *9177:A1 0.000224809
2 *9175:ZN 0.000224809
3 *9177:A1 *9175:A1 4.30651e-05
4 *9175:A3 *9177:A1 0.000137143
*RES
1 *9175:ZN *9177:A1 10.664 
*END

*D_NET *277 0.00129225
*CONN
*I *9177:A2 I *D gf180mcu_fd_sc_mcu7t5v0__nand2_1
*I *9176:ZN O *D gf180mcu_fd_sc_mcu7t5v0__nand2_1
*CAP
1 *9177:A2 0.000311195
2 *9176:ZN 0.000311195
3 *9177:A2 *9176:A1 0.000497696
4 *220:10 *9177:A2 1.26446e-05
5 *261:18 *9177:A2 0.000159517
*RES
1 *9176:ZN *9177:A2 11.912 
*END

*D_NET *278 0.125167
*CONN
*I *9180:A3 I *D gf180mcu_fd_sc_mcu7t5v0__nand3_1
*I *9196:A3 I *D gf180mcu_fd_sc_mcu7t5v0__nand3_1
*I *9204:A3 I *D gf180mcu_fd_sc_mcu7t5v0__nand3_1
*I *9208:A3 I *D gf180mcu_fd_sc_mcu7t5v0__nand3_1
*I *9200:A3 I *D gf180mcu_fd_sc_mcu7t5v0__nand3_1
*I *9192:A3 I *D gf180mcu_fd_sc_mcu7t5v0__nand3_1
*I *9188:A3 I *D gf180mcu_fd_sc_mcu7t5v0__nand3_1
*I *9184:A3 I *D gf180mcu_fd_sc_mcu7t5v0__nand3_1
*I *9179:Z O *D gf180mcu_fd_sc_mcu7t5v0__and2_1
*CAP
1 *9180:A3 0
2 *9196:A3 0.000106741
3 *9204:A3 0.000119818
4 *9208:A3 0.000205591
5 *9200:A3 0.000130265
6 *9192:A3 0
7 *9188:A3 0
8 *9184:A3 0
9 *9179:Z 0.000405201
10 *278:84 0.000436028
11 *278:69 0.000566443
12 *278:65 0.000547588
13 *278:61 0.00325039
14 *278:52 0.0041492
15 *278:43 0.00361311
16 *278:37 0.00656866
17 *278:25 0.00626451
18 *278:23 0.00531004
19 *278:10 0.00342038
20 *9196:A3 *9196:A1 2.81522e-06
21 *9196:A3 *9196:A2 5.64338e-05
22 *9204:A3 *9204:A1 2.81522e-06
23 *9204:A3 *9204:A2 6.062e-05
24 *9208:A3 *9200:A1 0.00126415
25 *9208:A3 *9204:A2 2.63994e-05
26 *9208:A3 *9206:A1 2.72796e-06
27 *9208:A3 *9208:A2 0.000669232
28 *9208:A3 *9210:A1 0.00021876
29 *9208:A3 *437:52 0.000191975
30 *278:10 *9638:I 0.000979229
31 *278:10 *281:16 0.00137176
32 *278:10 *431:24 0.000118984
33 *278:10 *448:67 5.47431e-06
34 *278:23 *9183:I1 0.00498528
35 *278:23 *439:35 0.000922166
36 *278:23 *448:67 0.000530502
37 *278:25 *9182:A1 0.00376594
38 *278:25 *9182:A2 0.00169296
39 *278:25 *439:37 0.00170775
40 *278:37 *9644:I 0.0146405
41 *278:43 *9190:A1 0.000227152
42 *278:43 *437:21 0.0001154
43 *278:52 *437:21 0.00657412
44 *278:52 *437:30 0.000250567
45 *278:61 *437:30 0.0211685
46 *278:61 *437:41 0.000158227
47 *278:65 *9196:A2 6.88177e-05
48 *278:69 *331:52 0.000680507
49 *278:69 *437:41 0.0013014
50 *278:84 *9200:A1 0.000609567
51 *278:84 *331:52 0.000232106
52 *278:84 *437:41 0.000106449
53 *278:84 *437:52 7.29199e-05
54 *192:10 *278:10 0.00078196
55 *192:10 *278:23 0.00344004
56 *192:10 *278:25 0.0203821
57 *221:14 *278:25 0.000686172
*RES
1 *9179:Z *278:10 10.844 
2 *278:10 *9184:A3 4.5 
3 *278:10 *278:23 36.192 
4 *278:23 *278:25 53.976 
5 *278:25 *278:37 41.3191 
6 *278:37 *278:43 28.0746 
7 *278:43 *9188:A3 9 
8 *278:43 *278:52 17.16 
9 *278:52 *9192:A3 9 
10 *278:52 *278:61 53.56 
11 *278:61 *278:65 5.228 
12 *278:65 *278:69 12.092 
13 *278:69 *9200:A3 9.832 
14 *278:69 *278:84 7.1 
15 *278:84 *9208:A3 18.7 
16 *278:84 *9204:A3 5.228 
17 *278:65 *9196:A3 5.228 
18 *278:25 *9180:A3 4.5 
*END

*D_NET *279 0.0139257
*CONN
*I *9182:A1 I *D gf180mcu_fd_sc_mcu7t5v0__nand2_1
*I *9180:ZN O *D gf180mcu_fd_sc_mcu7t5v0__nand3_1
*CAP
1 *9182:A1 0.00438219
2 *9180:ZN 0.00438219
3 *9182:A1 *439:37 0.00139536
4 *278:25 *9182:A1 0.00376594
*RES
1 *9180:ZN *9182:A1 49.248 
*END

*D_NET *280 0.00289745
*CONN
*I *9182:A2 I *D gf180mcu_fd_sc_mcu7t5v0__nand2_1
*I *9181:ZN O *D gf180mcu_fd_sc_mcu7t5v0__nand2_1
*CAP
1 *9182:A2 0.000186874
2 *9181:ZN 0.000186874
3 *9182:A2 *439:37 0.000126196
4 *221:14 *9182:A2 0.000704552
5 *278:25 *9182:A2 0.00169296
*RES
1 *9181:ZN *9182:A2 13.784 
*END

*D_NET *281 0.0380489
*CONN
*I *9186:A1 I *D gf180mcu_fd_sc_mcu7t5v0__nand2_1
*I *9184:ZN O *D gf180mcu_fd_sc_mcu7t5v0__nand3_1
*CAP
1 *9186:A1 0.00148907
2 *9184:ZN 0.00157453
3 *281:16 0.0030636
4 *9186:A1 *9135:A1 0.000104893
5 *9186:A1 *9138:A2 0.000277579
6 *9186:A1 *9251:A2 0.000343539
7 *9186:A1 *9664:I 0.000101886
8 *9186:A1 *367:29 0.00029435
9 *9186:A1 *370:49 0.00276747
10 *9186:A1 *370:55 0.000634664
11 *9186:A1 *372:53 0.000845089
12 *9186:A1 *440:21 0.000642655
13 *9186:A1 *440:34 0.000257303
14 *9186:A1 *594:117 0.00222503
15 *9186:A1 *599:8 3.11112e-05
16 *9186:A1 *603:10 0.00117948
17 *281:16 *9141:A2 4.77699e-05
18 *281:16 *9281:A2 3.10787e-05
19 *281:16 *9375:I1 0.000155535
20 *281:16 *9547:I 0.00029432
21 *281:16 *9638:I 0.00211194
22 *281:16 *431:24 0.00117734
23 *281:16 *448:67 0.0110851
24 *281:16 *460:150 0.000820492
25 *281:16 *460:160 0.000262672
26 *281:16 *512:94 0.000287643
27 *281:16 *687:8 0.000975049
28 *9442:D *9186:A1 0.00244335
29 *9471:I *9186:A1 0.000559677
30 *258:18 *281:16 9.41493e-05
31 *258:53 *9186:A1 0.000498827
32 *278:10 *281:16 0.00137176
*RES
1 *9184:ZN *281:16 44.88 
2 *281:16 *9186:A1 40.304 
*END

*D_NET *282 0.00211849
*CONN
*I *9186:A2 I *D gf180mcu_fd_sc_mcu7t5v0__nand2_1
*I *9185:ZN O *D gf180mcu_fd_sc_mcu7t5v0__nand2_1
*CAP
1 *9186:A2 0.000455142
2 *9185:ZN 0.000455142
3 *9186:A2 *9354:A1 0.000350975
4 *9186:A2 *9633:D[1] 9.05264e-05
5 *9186:A2 *371:26 8.02744e-05
6 *9186:A2 *431:12 0.000686436
*RES
1 *9185:ZN *9186:A2 22.576 
*END

*D_NET *283 0.00919224
*CONN
*I *9190:A1 I *D gf180mcu_fd_sc_mcu7t5v0__nand2_1
*I *9188:ZN O *D gf180mcu_fd_sc_mcu7t5v0__nand3_1
*CAP
1 *9190:A1 0.0042268
2 *9188:ZN 0.0042268
3 *9190:A1 *9190:A2 0.00012915
4 *9190:A1 *9194:A1 0.000382331
5 *278:43 *9190:A1 0.000227152
*RES
1 *9188:ZN *9190:A1 47.328 
*END

*D_NET *284 0.00158574
*CONN
*I *9190:A2 I *D gf180mcu_fd_sc_mcu7t5v0__nand2_1
*I *9189:ZN O *D gf180mcu_fd_sc_mcu7t5v0__nand2_1
*CAP
1 *9190:A2 0.000480199
2 *9189:ZN 0.000480199
3 *9190:A2 *9189:A1 1.23478e-05
4 *9190:A1 *9190:A2 0.00012915
5 *223:12 *9190:A2 0.000483845
*RES
1 *9189:ZN *9190:A2 23.408 
*END

*D_NET *285 0.0065863
*CONN
*I *9194:A1 I *D gf180mcu_fd_sc_mcu7t5v0__nand2_1
*I *9192:ZN O *D gf180mcu_fd_sc_mcu7t5v0__nand3_1
*CAP
1 *9194:A1 0.00261367
2 *9192:ZN 0.00261367
3 *9194:A1 *9189:A2 0
4 *9194:A1 *381:118 0
5 *9194:A1 *381:127 0
6 *9190:A1 *9194:A1 0.000382331
7 *223:12 *9194:A1 0.000964252
8 *224:12 *9194:A1 1.23748e-05
*RES
1 *9192:ZN *9194:A1 42.336 
*END

*D_NET *286 0.00166742
*CONN
*I *9194:A2 I *D gf180mcu_fd_sc_mcu7t5v0__nand2_1
*I *9193:ZN O *D gf180mcu_fd_sc_mcu7t5v0__nand2_1
*CAP
1 *9194:A2 0.000276445
2 *9193:ZN 0.000276445
3 *9194:A2 *381:127 0.000665686
4 *224:12 *9194:A2 0.000448841
*RES
1 *9193:ZN *9194:A2 22.992 
*END

*D_NET *287 0.00392268
*CONN
*I *9198:A1 I *D gf180mcu_fd_sc_mcu7t5v0__nand2_1
*I *9196:ZN O *D gf180mcu_fd_sc_mcu7t5v0__nand3_1
*CAP
1 *9198:A1 0.000571667
2 *9196:ZN 0.000571667
3 *9198:A1 *9198:A2 4.07478e-05
4 *9198:A1 *9635:D[4] 0.0013693
5 *9198:A1 *505:12 0.0013693
*RES
1 *9196:ZN *9198:A1 24.864 
*END

*D_NET *288 0.000410929
*CONN
*I *9198:A2 I *D gf180mcu_fd_sc_mcu7t5v0__nand2_1
*I *9197:ZN O *D gf180mcu_fd_sc_mcu7t5v0__nand2_1
*CAP
1 *9198:A2 0.000155589
2 *9197:ZN 0.000155589
3 *9198:A1 *9198:A2 4.07478e-05
4 *225:10 *9198:A2 5.90026e-05
*RES
1 *9197:ZN *9198:A2 10.248 
*END

*D_NET *289 0.000519123
*CONN
*I *9202:A1 I *D gf180mcu_fd_sc_mcu7t5v0__nand2_1
*I *9200:ZN O *D gf180mcu_fd_sc_mcu7t5v0__nand3_1
*CAP
1 *9202:A1 0.000252364
2 *9200:ZN 0.000252364
3 *9202:A1 *9202:A2 1.43956e-05
4 *9202:A1 *9206:A1 0
5 *9202:A1 *9206:A2 0
*RES
1 *9200:ZN *9202:A1 10.872 
*END

*D_NET *290 0.00116592
*CONN
*I *9202:A2 I *D gf180mcu_fd_sc_mcu7t5v0__nand2_1
*I *9201:ZN O *D gf180mcu_fd_sc_mcu7t5v0__nand2_1
*CAP
1 *9202:A2 0.000513282
2 *9201:ZN 0.000513282
3 *9202:A2 *9201:A2 1.40331e-05
4 *9202:A2 *9205:A1 0
5 *9202:A2 *9431:CLK 2.81522e-06
6 *9202:A2 *429:53 0.000106745
7 *9202:A2 *429:68 1.36398e-06
8 *9202:A1 *9202:A2 1.43956e-05
9 *226:12 *9202:A2 0
*RES
1 *9201:ZN *9202:A2 12.744 
*END

*D_NET *291 0.00106392
*CONN
*I *9206:A1 I *D gf180mcu_fd_sc_mcu7t5v0__nand2_1
*I *9204:ZN O *D gf180mcu_fd_sc_mcu7t5v0__nand3_1
*CAP
1 *9206:A1 0.000479199
2 *9204:ZN 0.000479199
3 *9206:A1 *9200:A1 0
4 *9206:A1 *9204:A2 3.26853e-05
5 *9206:A1 *9206:A2 4.07478e-05
6 *9206:A1 *9210:A1 2.93608e-05
7 *9202:A1 *9206:A1 0
8 *9208:A3 *9206:A1 2.72796e-06
*RES
1 *9204:ZN *9206:A1 12.12 
*END

*D_NET *292 0.00167907
*CONN
*I *9206:A2 I *D gf180mcu_fd_sc_mcu7t5v0__nand2_1
*I *9205:ZN O *D gf180mcu_fd_sc_mcu7t5v0__nand2_1
*CAP
1 *9206:A2 0.000426788
2 *9205:ZN 0.000426788
3 *9206:A2 *9210:A1 0
4 *9206:A2 *9429:CLK 3.4596e-05
5 *9202:A1 *9206:A2 0
6 *9206:A1 *9206:A2 4.07478e-05
7 *9207:I0 *9206:A2 0
8 *226:12 *9206:A2 0.000679914
9 *227:6 *9206:A2 7.02352e-05
*RES
1 *9205:ZN *9206:A2 13.056 
*END

*D_NET *293 0.00224023
*CONN
*I *9210:A1 I *D gf180mcu_fd_sc_mcu7t5v0__nand2_1
*I *9208:ZN O *D gf180mcu_fd_sc_mcu7t5v0__nand3_1
*CAP
1 *9210:A1 0.000777865
2 *9208:ZN 0.000777865
3 *9210:A1 *9199:S 5.13239e-06
4 *9210:A1 *9200:A1 0.000283521
5 *9210:A1 *9208:A2 3.52832e-05
6 *9210:A1 *9210:A2 1.78817e-06
7 *9206:A1 *9210:A1 2.93608e-05
8 *9206:A2 *9210:A1 0
9 *9207:I0 *9210:A1 4.64756e-05
10 *9208:A3 *9210:A1 0.00021876
11 *227:6 *9210:A1 6.41811e-05
*RES
1 *9208:ZN *9210:A1 24.656 
*END

*D_NET *294 0.00130124
*CONN
*I *9210:A2 I *D gf180mcu_fd_sc_mcu7t5v0__nand2_1
*I *9209:ZN O *D gf180mcu_fd_sc_mcu7t5v0__nand2_1
*CAP
1 *9210:A2 0.000563502
2 *9209:ZN 0.000563502
3 *9210:A2 *9209:A2 0.000171079
4 *9210:A2 *9429:CLK 1.36398e-06
5 *9210:A1 *9210:A2 1.78817e-06
6 *228:8 *9210:A2 0
*RES
1 *9209:ZN *9210:A2 12.744 
*END

*D_NET *295 0.0377111
*CONN
*I *9469:I I *D gf180mcu_fd_sc_mcu7t5v0__dlyd_1
*I *9393:S I *D gf180mcu_fd_sc_mcu7t5v0__mux2_2
*I *9391:S I *D gf180mcu_fd_sc_mcu7t5v0__mux2_2
*I *9392:S I *D gf180mcu_fd_sc_mcu7t5v0__mux2_2
*I *9232:ZN O *D gf180mcu_fd_sc_mcu7t5v0__nand2_1
*CAP
1 *9469:I 0
2 *9393:S 0.00040131
3 *9391:S 0.000878345
4 *9392:S 0
5 *9232:ZN 0.00203152
6 *295:24 0.00143598
7 *295:20 0.00312276
8 *295:12 0.00419534
9 *9391:S *9253:A1 3.37526e-05
10 *9391:S *9255:B 0.00134909
11 *9391:S *9263:A2 4.58667e-05
12 *9391:S *9442:CLK 3.4596e-05
13 *9391:S *9639:I 0.000429338
14 *9391:S *380:31 0.00200757
15 *9391:S *474:44 1.05579e-05
16 *9393:S *9235:A2 2.92613e-05
17 *9393:S *9269:A1 9.12352e-05
18 *9393:S *9269:A2 0.00117225
19 *9393:S *9388:B 0.00145505
20 *9393:S *512:94 0.000154561
21 *295:12 *9232:A2 0.000113027
22 *295:12 *9574:I 0.000573157
23 *295:12 *9592:I 1.0522e-05
24 *295:12 *401:20 0.000627628
25 *295:12 *408:51 0.000110661
26 *295:12 *441:14 0.00077427
27 *295:12 *441:34 0.000198816
28 *295:12 *516:10 2.38485e-05
29 *295:20 *9223:A1 0.00039988
30 *295:20 *9250:A3 0.000114373
31 *295:20 *9257:A3 0.000104092
32 *295:20 *9257:B2 0.000219608
33 *295:20 *9262:A2 0.00378169
34 *295:20 *9388:B 0.000807817
35 *295:20 *9591:I 7.92786e-05
36 *295:20 *9592:I 0.000367677
37 *295:20 *9639:I 8.41109e-05
38 *295:20 *405:23 2.20381e-05
39 *295:20 *405:25 1.99013e-05
40 *295:20 *422:10 0.000398478
41 *295:20 *516:14 0.000595984
42 *295:20 *516:40 4.04633e-05
43 *295:20 *543:16 3.4596e-05
44 *295:20 *594:26 0
45 *295:24 *9263:A2 0.000488365
46 *295:24 *9283:A2 2.17376e-05
47 *295:24 *9639:I 0.0002682
48 *295:24 *475:16 0.000188241
49 *295:24 *475:37 0.00134056
50 tl_o[49] *295:20 0.000764486
51 tl_o[64] *9393:S 5.52124e-05
52 tl_o[64] *295:20 0.000165937
53 tl_o[65] *9391:S 0.000767651
54 tl_o[65] *295:24 0.000810479
55 *9138:A4 *9391:S 5.95376e-05
56 *9341:I0 *295:12 0.000542439
57 *9445:D *9391:S 0.00304099
58 *9474:I *295:20 0.000530431
59 *9479:I *295:20 9.9336e-05
60 *9481:I *295:20 0.000187176
*RES
1 *9232:ZN *295:12 29.724 
2 *295:12 *295:20 36.664 
3 *295:20 *295:24 12.092 
4 *295:24 *9392:S 9 
5 *295:24 *9391:S 24.496 
6 *295:20 *9393:S 10.22 
7 *295:12 *9469:I 4.5 
*END

*D_NET *296 0.00633795
*CONN
*I *9234:A2 I *D gf180mcu_fd_sc_mcu7t5v0__oai21_1
*I *9270:A2 I *D gf180mcu_fd_sc_mcu7t5v0__aoi21_1
*I *9233:Z O *D gf180mcu_fd_sc_mcu7t5v0__and2_1
*CAP
1 *9234:A2 0.000267314
2 *9270:A2 2.91687e-05
3 *9233:Z 0.000487157
4 *296:14 0.00078364
5 *9234:A2 *9448:D 0.000547101
6 *9234:A2 *9450:D 0.000332906
7 *9234:A2 *9450:CLK 2.1435e-05
8 *9234:A2 *399:18 0.000140873
9 *9234:A2 *404:14 0
10 *9234:A2 *594:83 0.000332906
11 *9270:A2 *9450:CLK 0.00017298
12 *9270:A2 *594:83 0.00017298
13 *296:14 *9612:I 0.000527282
14 *296:14 *304:18 0.000346468
15 *296:14 *332:14 0.000410377
16 *296:14 *399:18 0.000564084
17 *296:14 *401:20 9.76253e-05
18 *296:14 *513:37 1.80644e-05
19 tl_o[4] *9234:A2 0.000776253
20 *9241:B1 *296:14 0
21 *9311:A1 *9234:A2 1.61099e-05
22 *9311:A1 *296:14 0.000293228
*RES
1 *9233:Z *296:14 14.616 
2 *296:14 *9270:A2 9.52 
3 *296:14 *9234:A2 12.952 
*END

*D_NET *297 0.0077122
*CONN
*I *9249:A2 I *D gf180mcu_fd_sc_mcu7t5v0__nand2_1
*I *9235:ZN O *D gf180mcu_fd_sc_mcu7t5v0__nor2_1
*CAP
1 *9249:A2 0.00158453
2 *9235:ZN 0.00158453
3 *9249:A2 *9227:A2 0.000335815
4 *9249:A2 *9235:A1 0.000280933
5 *9249:A2 *9235:A2 0.000777336
6 *9249:A2 *9249:A1 0.000158673
7 *9249:A2 *9263:A2 0.000748462
8 *9249:A2 *460:129 5.25802e-05
9 *9249:A2 *460:150 9.13087e-05
10 *9249:A2 *506:20 0.000396623
11 *9249:A2 *594:26 0.000991388
12 tl_o[4] *9249:A2 0.000129809
13 tl_o[64] *9249:A2 0.000179413
14 *9472:I *9249:A2 9.52676e-05
15 *9473:I *9249:A2 5.51333e-05
16 *9478:I *9249:A2 0.000166591
17 *9545:I *9249:A2 8.38125e-05
*RES
1 *9235:ZN *9249:A2 34.744 
*END

*D_NET *298 0.00173145
*CONN
*I *9245:B I *D gf180mcu_fd_sc_mcu7t5v0__oai31_2
*I *9236:ZN O *D gf180mcu_fd_sc_mcu7t5v0__nor3_1
*CAP
1 *9245:B 0.000257925
2 *9236:ZN 0.000257925
3 *9245:B *9231:A1 0.00014878
4 *9245:B *9231:A2 0.000428493
5 *9245:B *9257:B1 6.76308e-05
6 *9245:B *513:24 2.2658e-05
7 *9241:B1 *9245:B 0.00052557
8 *128:26 *9245:B 2.24654e-05
*RES
1 *9236:ZN *9245:B 12.12 
*END

*D_NET *299 0.00528869
*CONN
*I *9312:A2 I *D gf180mcu_fd_sc_mcu7t5v0__nand4_4
*I *9267:A2 I *D gf180mcu_fd_sc_mcu7t5v0__nor3_2
*I *9266:A1 I *D gf180mcu_fd_sc_mcu7t5v0__nor2_1
*I *9237:ZN O *D gf180mcu_fd_sc_mcu7t5v0__nor3_1
*CAP
1 *9312:A2 5.56492e-05
2 *9267:A2 0.000360392
3 *9266:A1 9.77256e-05
4 *9237:ZN 0.000284536
5 *299:16 0.00108031
6 *299:12 0.000962374
7 *9267:A2 *9266:A2 4.97993e-05
8 *9267:A2 *9267:A3 2.46831e-05
9 *9267:A2 *375:69 7.23409e-05
10 *9267:A2 *407:57 3.83532e-05
11 *9267:A2 *648:14 1.26638e-05
12 *9312:A2 *9132:A2 0.000103788
13 *299:12 *9131:A1 1.94497e-05
14 *299:12 *9132:A2 0.000254913
15 *299:12 *438:56 0.000100568
16 *299:12 *449:82 8.80177e-06
17 *299:12 *593:12 7.54092e-05
18 *299:16 *9267:A3 3.99505e-05
19 *299:16 *9268:I0 2.00565e-05
20 *299:16 *9375:I1 0
21 *299:16 *9451:D 0.0003983
22 *299:16 *438:72 8.21146e-06
23 *299:16 *449:82 6.75181e-05
24 *299:16 *593:12 7.38424e-05
25 *9397:D *9267:A2 0.000419265
26 *249:12 *9312:A2 4.29477e-05
27 *249:12 *299:16 0.000560736
28 *249:16 *299:16 2.90152e-05
29 *256:12 *299:16 0
30 *257:18 *9312:A2 5.63044e-06
31 *257:18 *299:16 2.14647e-05
*RES
1 *9237:ZN *299:12 15.372 
2 *299:12 *299:16 6.032 
3 *299:16 *9266:A1 5.228 
4 *299:16 *9267:A2 16.204 
5 *299:12 *9312:A2 5.02 
*END

*D_NET *300 0.0164752
*CONN
*I *9239:B2 I *D gf180mcu_fd_sc_mcu7t5v0__aoi22_1
*I *9238:ZN O *D gf180mcu_fd_sc_mcu7t5v0__nand2_1
*CAP
1 *9239:B2 9.00039e-05
2 *9238:ZN 0.00184768
3 *300:24 0.00193768
4 *9239:B2 *380:57 0.00027615
5 *300:24 *9225:A2 2.18918e-05
6 *300:24 *9239:A2 0.00201899
7 *300:24 *9240:A1 0.000489998
8 *300:24 *9271:A2 0.00516809
9 *300:24 *9583:I 0.000176038
10 *300:24 *438:29 0.000547422
11 *300:24 *449:32 0.000420211
12 *300:24 *511:23 0.000233449
13 *300:24 *511:31 0.000107033
14 *300:24 *512:26 0.000322239
15 tl_o[4] *9239:B2 0.000371438
16 *9238:A1 *300:24 0.000946434
17 *9472:I *300:24 0.00150041
*RES
1 *9238:ZN *300:24 45.56 
2 *300:24 *9239:B2 10.144 
*END

*D_NET *301 0.00310018
*CONN
*I *9245:A1 I *D gf180mcu_fd_sc_mcu7t5v0__oai31_2
*I *9239:ZN O *D gf180mcu_fd_sc_mcu7t5v0__aoi22_1
*CAP
1 *9245:A1 0.000486393
2 *9239:ZN 0.000486393
3 *9245:A1 *9134:A2 0.000619746
4 *9245:A1 *9228:A2 1.46269e-05
5 *9245:A1 *9234:B 5.24163e-05
6 *9245:A1 *9260:A2 3.64211e-05
7 *9245:A1 *513:20 0.000312035
8 *9245:A1 *513:24 2.14631e-05
9 *9245:A1 *530:22 0.000174088
10 *9245:A1 *604:23 0.000571658
11 *9241:B1 *9245:A1 0.000324938
*RES
1 *9239:ZN *9245:A1 23.824 
*END

*D_NET *302 0.00881798
*CONN
*I *9241:B2 I *D gf180mcu_fd_sc_mcu7t5v0__aoi22_1
*I *9240:ZN O *D gf180mcu_fd_sc_mcu7t5v0__nand2_1
*CAP
1 *9241:B2 0.00198266
2 *9240:ZN 0.00198266
3 *9241:B2 *9213:A1 6.18025e-05
4 *9241:B2 *9238:A2 8.41845e-05
5 *9241:B2 *9240:A1 0.000103788
6 *9241:B2 *9241:A1 0.000785898
7 *9241:B2 *9243:A1 0.00126354
8 *9241:B2 *9342:A1 0.000222373
9 *9241:B2 *9381:I0 0.000545356
10 *9241:B2 *9632:D[7] 0.000548692
11 *9241:B2 *9663:I 0.000260844
12 *9241:B2 *332:14 0
13 *9241:B2 *405:38 4.49307e-05
14 *9241:B2 *426:12 1.42672e-05
15 *9241:B2 *517:20 0.000627321
16 *9470:I *9241:B2 0.000289665
*RES
1 *9240:ZN *9241:B2 38.488 
*END

*D_NET *303 0.000772825
*CONN
*I *9245:A2 I *D gf180mcu_fd_sc_mcu7t5v0__oai31_2
*I *9241:ZN O *D gf180mcu_fd_sc_mcu7t5v0__aoi22_1
*CAP
1 *9245:A2 0.000157265
2 *9241:ZN 0.000157265
3 *9245:A2 *9241:A1 3.4596e-05
4 *9245:A2 *9260:A2 0.000245717
5 *9245:A2 *9612:I 0.000133963
6 *9245:A2 *513:24 4.40186e-05
*RES
1 *9241:ZN *9245:A2 10.352 
*END

*D_NET *304 0.0131192
*CONN
*I *9243:A2 I *D gf180mcu_fd_sc_mcu7t5v0__nand2_1
*I *9257:B1 I *D gf180mcu_fd_sc_mcu7t5v0__oai32_1
*I *9242:ZN O *D gf180mcu_fd_sc_mcu7t5v0__nor2_1
*CAP
1 *9243:A2 0
2 *9257:B1 0.000794211
3 *9242:ZN 0.000446278
4 *304:18 0.00124049
5 *9257:B1 *9231:A2 0.000428493
6 *9257:B1 *9241:A1 0.000332849
7 *9257:B1 *9243:A1 0.00033778
8 *9257:B1 *9257:A1 5.05912e-05
9 *9257:B1 *9257:B2 5.13977e-05
10 *9257:B1 *9260:A2 6.96675e-05
11 *9257:B1 *9260:B 0.00136137
12 *9257:B1 *9261:A1 0.000505479
13 *9257:B1 *9612:I 0.00180925
14 *9257:B1 *513:24 3.18325e-05
15 *9257:B1 *513:37 2.14739e-05
16 *304:18 *9213:A1 3.53822e-05
17 *304:18 *9231:A2 0.000339029
18 *304:18 *9233:A2 0.000306296
19 *304:18 *9612:I 5.19815e-05
20 *304:18 *332:14 0.00107422
21 *304:18 *402:18 6.87243e-05
22 *304:18 *513:37 6.54234e-06
23 tl_o[8] *304:18 0.000266617
24 *9241:B1 *9257:B1 7.59811e-05
25 *9245:B *9257:B1 6.76308e-05
26 *9311:A1 *304:18 0.000417144
27 *9470:I *9257:B1 0.000618205
28 *9525:I *9257:B1 0.00177141
29 *9529:I *9257:B1 7.4839e-05
30 *3:50 *304:18 1.0975e-05
31 *128:26 *9257:B1 0.000106582
32 *296:14 *304:18 0.000346468
*RES
1 *9242:ZN *304:18 20.052 
2 *304:18 *9257:B1 26.916 
3 *304:18 *9243:A2 4.5 
*END

*D_NET *305 0.00360743
*CONN
*I *9244:B I *D gf180mcu_fd_sc_mcu7t5v0__oai31_1
*I *9243:ZN O *D gf180mcu_fd_sc_mcu7t5v0__nand2_1
*CAP
1 *9244:B 0.000345117
2 *9243:ZN 0.000345117
3 *9244:B *9243:A1 0.00113845
4 *9244:B *9260:B 0.000285685
5 *9244:B *9261:A4 8.76262e-05
6 *9244:B *9612:I 4.71117e-06
7 *9244:B *332:14 1.13158e-05
8 *9244:B *513:37 0.000269881
9 *9244:B *513:49 2.46957e-05
10 *9244:B *514:21 0.000317921
11 *9244:B *514:48 0.000251411
12 tl_o[8] *9244:B 0.000525497
*RES
1 *9243:ZN *9244:B 23.304 
*END

*D_NET *306 0.00176037
*CONN
*I *9245:A3 I *D gf180mcu_fd_sc_mcu7t5v0__oai31_2
*I *9244:ZN O *D gf180mcu_fd_sc_mcu7t5v0__oai31_1
*CAP
1 *9245:A3 7.01288e-05
2 *9244:ZN 7.01288e-05
3 *9245:A3 *9260:B 0.000103788
4 *9245:A3 *367:29 0.000737647
5 *9245:A3 *604:23 0.000746465
6 *3:50 *9245:A3 3.22108e-05
*RES
1 *9244:ZN *9245:A3 20.288 
*END

*D_NET *307 0.0106783
*CONN
*I *9312:A3 I *D gf180mcu_fd_sc_mcu7t5v0__nand4_4
*I *9264:A1 I *D gf180mcu_fd_sc_mcu7t5v0__nand2_1
*I *9265:A2 I *D gf180mcu_fd_sc_mcu7t5v0__nand3_4
*I *9245:ZN O *D gf180mcu_fd_sc_mcu7t5v0__oai31_2
*CAP
1 *9312:A3 0.000435437
2 *9264:A1 9.50627e-05
3 *9265:A2 0.000488956
4 *9245:ZN 0.000488956
5 *307:22 0.0005305
6 *9264:A1 *9312:A4 0.000169099
7 *9264:A1 *375:69 4.4504e-06
8 *9264:A1 *595:29 7.16355e-05
9 *9265:A2 *9134:A2 0.000371523
10 *9265:A2 *367:29 0.00250598
11 *9265:A2 *375:69 7.67653e-06
12 *9265:A2 *380:47 0.00177503
13 *9265:A2 *380:57 0.000321529
14 *9265:A2 *506:20 0.000194973
15 *9265:A2 *506:33 0.000139186
16 *9312:A3 *9312:A4 0.000891627
17 *9312:A3 *375:69 3.62028e-05
18 *9312:A3 *407:57 0.00159917
19 *9312:A3 *614:10 0.000173451
20 *256:12 *9265:A2 0.000377895
*RES
1 *9245:ZN *9265:A2 27.776 
2 *9265:A2 *307:22 4.5 
3 *307:22 *9264:A1 5.644 
4 *307:22 *9312:A3 11.884 
*END

*D_NET *308 0.0209404
*CONN
*I *9247:A3 I *D gf180mcu_fd_sc_mcu7t5v0__and3_1
*I *9248:A3 I *D gf180mcu_fd_sc_mcu7t5v0__nand3_1
*I *9246:ZN O *D gf180mcu_fd_sc_mcu7t5v0__nor2_1
*CAP
1 *9247:A3 0
2 *9248:A3 0.00128487
3 *9246:ZN 0.000819976
4 *308:12 0.00210485
5 *9248:A3 *9255:A1 0.00612399
6 *9248:A3 *9283:A1 0.000244674
7 *9248:A3 *9384:I0 4.58667e-05
8 *9248:A3 *9387:A1 4.01571e-05
9 *9248:A3 *9438:CLK 2.25385e-05
10 *9248:A3 *9597:I 5.46664e-05
11 *9248:A3 *375:92 0.000121643
12 *9248:A3 *445:14 0.000244674
13 *9248:A3 *472:6 5.72104e-05
14 *9248:A3 *514:14 0.00111375
15 *9248:A3 *613:22 0.000147311
16 *308:12 *9246:A1 0.00115739
17 *308:12 *9246:A2 2.68257e-05
18 *308:12 *9255:A2 0.000852753
19 *308:12 *9382:I0 8.6704e-05
20 *308:12 *9384:I0 0.000816754
21 *308:12 *9385:I0 0.000216479
22 *308:12 *9572:I 0.000821169
23 *308:12 *9573:I 0.000188878
24 *308:12 *9633:D[0] 0.00249238
25 *308:12 *399:18 7.2385e-05
26 tl_o[24] *9248:A3 4.11879e-05
27 tl_o[53] *308:12 2.76472e-05
28 *9540:I *9248:A3 2.61971e-06
29 *4:25 *9248:A3 0.00171108
*RES
1 *9246:ZN *308:12 26.188 
2 *308:12 *9248:A3 34.612 
3 *308:12 *9247:A3 4.5 
*END

*D_NET *309 0.008899
*CONN
*I *9250:A3 I *D gf180mcu_fd_sc_mcu7t5v0__oai31_1
*I *9247:Z O *D gf180mcu_fd_sc_mcu7t5v0__and3_1
*CAP
1 *9250:A3 0.000745222
2 *9247:Z 0.000745222
3 *9250:A3 *9262:A2 0.000385232
4 *9250:A3 *9387:A2 3.41124e-05
5 *9250:A3 *9390:S 0.000993314
6 *9250:A3 *375:92 4.01502e-05
7 tl_o[49] *9250:A3 0.00160555
8 tl_o[53] *9250:A3 0.00128854
9 tl_o[65] *9250:A3 0.000158666
10 *9474:I *9250:A3 0.00174193
11 *9477:I *9250:A3 0.000577726
12 *9544:I *9250:A3 0.000468956
13 *295:20 *9250:A3 0.000114373
*RES
1 *9247:Z *9250:A3 31.832 
*END

*D_NET *310 0.012609
*CONN
*I *9255:A1 I *D gf180mcu_fd_sc_mcu7t5v0__oai21_1
*I *9248:ZN O *D gf180mcu_fd_sc_mcu7t5v0__nand3_1
*CAP
1 *9255:A1 0.00103471
2 *9248:ZN 0.00103471
3 *9255:A1 *9248:A1 6.07902e-05
4 *9255:A1 *9255:A2 0.000103788
5 *9255:A1 *9438:CLK 0
6 *9255:A1 *9576:I 0.00227924
7 *9255:A1 *9597:I 4.64922e-06
8 *9255:A1 *412:64 0.000542592
9 *9255:A1 *419:14 2.26659e-05
10 *9255:A1 *445:14 0.00017298
11 *9255:A1 *472:10 0.000398453
12 *9255:A1 *495:14 0.000265634
13 *9255:A1 *613:22 0.00049061
14 tl_o[25] *9255:A1 7.08905e-06
15 *9248:A3 *9255:A1 0.00612399
16 *4:25 *9255:A1 6.70879e-05
*RES
1 *9248:ZN *9255:A1 37.864 
*END

*D_NET *311 0.0106245
*CONN
*I *9250:B I *D gf180mcu_fd_sc_mcu7t5v0__oai31_1
*I *9395:A2 I *D gf180mcu_fd_sc_mcu7t5v0__oai21_1
*I *9249:ZN O *D gf180mcu_fd_sc_mcu7t5v0__nand2_1
*CAP
1 *9250:B 0.000247507
2 *9395:A2 0.000853405
3 *9249:ZN 0
4 *311:6 0.00110091
5 *9250:B *9236:A2 0.00221754
6 *9250:B *9262:B 0.000600756
7 *9250:B *369:45 0.000215209
8 *9250:B *375:74 0.00078273
9 *9250:B *375:92 0.00013467
10 *9250:B *438:119 7.12175e-05
11 *9250:B *506:20 3.44161e-06
12 *9395:A2 *9236:A2 0.000353403
13 *9395:A2 *9395:A1 4.09568e-05
14 *9395:A2 *9395:B 1.78817e-06
15 *9395:A2 *365:30 0.000293327
16 *9395:A2 *371:18 0.000571178
17 *9395:A2 *375:74 0.001198
18 *9395:A2 *441:57 0.000797734
19 *9395:A2 *530:22 0.000325631
20 *9262:A1 *9250:B 0.000331165
21 *9537:I *9395:A2 0.000483931
*RES
1 *9249:ZN *311:6 9 
2 *311:6 *9395:A2 20.128 
3 *311:6 *9250:B 16.488 
*END

*D_NET *312 0.00229213
*CONN
*I *9263:A1 I *D gf180mcu_fd_sc_mcu7t5v0__and3_1
*I *9250:ZN O *D gf180mcu_fd_sc_mcu7t5v0__oai31_1
*CAP
1 *9263:A1 0.00010737
2 *9250:ZN 0.00010737
3 *9263:A1 *9235:A2 0.000665861
4 *9263:A1 *9263:A2 0.000302246
5 *9263:A1 *9282:A2 3.646e-05
6 *9263:A1 *460:150 0.000302246
7 *9263:A1 *512:26 0.000582338
8 *9263:A1 *512:94 0.000188241
*RES
1 *9250:ZN *9263:A1 20.912 
*END

*D_NET *313 0.00148917
*CONN
*I *9252:A3 I *D gf180mcu_fd_sc_mcu7t5v0__nand3_1
*I *9251:ZN O *D gf180mcu_fd_sc_mcu7t5v0__nor2_1
*CAP
1 *9252:A3 0.00027654
2 *9251:ZN 0.00027654
3 *9252:A3 *9251:A1 0.000734618
4 *9252:A3 *9391:I1 5.52675e-05
5 *9252:A3 *473:24 1.07369e-05
6 *9252:A3 *495:14 0.000135468
*RES
1 *9251:ZN *9252:A3 11.6 
*END

*D_NET *314 0.0102651
*CONN
*I *9255:B I *D gf180mcu_fd_sc_mcu7t5v0__oai21_1
*I *9252:ZN O *D gf180mcu_fd_sc_mcu7t5v0__nand3_1
*CAP
1 *9255:B 0.00062919
2 *9252:ZN 0.00062919
3 *9255:B *9247:A1 0.0031451
4 *9255:B *9252:A1 1.98127e-05
5 *9255:B *9253:A1 0.000574446
6 *9255:B *9436:CLK 0.000456316
7 *9255:B *329:26 0.00270159
8 *9255:B *380:31 0.000173376
9 *9255:B *602:12 4.18157e-05
10 tl_o[53] *9255:B 0.00037585
11 *9138:A4 *9255:B 0.000169324
12 *9391:S *9255:B 0.00134909
*RES
1 *9252:ZN *9255:B 33.08 
*END

*D_NET *315 0.00295085
*CONN
*I *9254:A3 I *D gf180mcu_fd_sc_mcu7t5v0__nand3_1
*I *9253:ZN O *D gf180mcu_fd_sc_mcu7t5v0__nor2_1
*CAP
1 *9254:A3 0.000245636
2 *9253:ZN 0.000245636
3 *9254:A3 *9262:A2 3.4596e-05
4 *9254:A3 *9269:A1 0.000665871
5 *9254:A3 *9393:I0 0.000825516
6 *9254:A3 *375:69 1.0197e-05
7 *9254:A3 *506:20 0.000249958
8 *9254:A3 *594:117 2.46831e-05
9 *9471:I *9254:A3 0.000648752
*RES
1 *9253:ZN *9254:A3 22.368 
*END

*D_NET *316 0.0133253
*CONN
*I *9255:A2 I *D gf180mcu_fd_sc_mcu7t5v0__oai21_1
*I *9254:ZN O *D gf180mcu_fd_sc_mcu7t5v0__nand3_1
*CAP
1 *9255:A2 0.00129824
2 *9254:ZN 0.00129824
3 *9255:A2 *9215:A1 0.0017925
4 *9255:A2 *9235:A2 7.67463e-06
5 *9255:A2 *9236:A2 0.000286498
6 *9255:A2 *9247:A2 0.000473951
7 *9255:A2 *9250:A2 0
8 *9255:A2 *9262:A2 8.52105e-06
9 *9255:A2 *9263:A2 5.13977e-05
10 *9255:A2 *9387:A1 0.000600451
11 *9255:A2 *9387:A2 0.00172269
12 *9255:A2 *9572:I 6.9464e-06
13 *9255:A2 *380:43 0
14 *9255:A2 *399:18 5.82251e-05
15 *9255:A2 *473:24 0.000256274
16 *9255:A2 *484:22 0.00263051
17 *9255:A2 *514:14 6.99477e-05
18 tl_o[25] *9255:A2 3.22108e-05
19 tl_o[53] *9255:A2 5.04911e-05
20 *9255:A1 *9255:A2 0.000103788
21 *9536:I *9255:A2 0.00151821
22 *9544:I *9255:A2 9.52609e-05
23 *4:25 *9255:A2 0.000110509
24 *308:12 *9255:A2 0.000852753
*RES
1 *9254:ZN *9255:A2 38.696 
*END

*D_NET *317 0.00951925
*CONN
*I *9263:A2 I *D gf180mcu_fd_sc_mcu7t5v0__and3_1
*I *9255:ZN O *D gf180mcu_fd_sc_mcu7t5v0__oai21_1
*CAP
1 *9263:A2 0.00132336
2 *9255:ZN 0.00132336
3 *9263:A2 *9221:A1 0.000213609
4 *9263:A2 *9392:I1 0.000248378
5 *9263:A2 *9572:I 8.11549e-05
6 *9263:A2 *9639:I 1.7892e-06
7 *9263:A2 *460:150 0.00032237
8 *9263:A2 *475:16 0.000179413
9 *9263:A2 *475:37 0.00136175
10 *9263:A2 *484:22 9.92883e-05
11 *9263:A2 *506:20 4.03911e-05
12 *9263:A2 *512:16 0.000912718
13 *9263:A2 *613:22 8.6536e-05
14 tl_o[25] *9263:A2 0.000433343
15 tl_o[64] *9263:A2 3.0542e-05
16 *9138:A4 *9263:A2 0.000861526
17 *9249:A2 *9263:A2 0.000748462
18 *9255:A2 *9263:A2 5.13977e-05
19 *9263:A1 *9263:A2 0.000302246
20 *9391:S *9263:A2 4.58667e-05
21 *9478:I *9263:A2 0.000363377
22 *295:24 *9263:A2 0.000488365
*RES
1 *9255:ZN *9263:A2 34.016 
*END

*D_NET *318 0.000439719
*CONN
*I *9257:A3 I *D gf180mcu_fd_sc_mcu7t5v0__oai32_1
*I *9256:ZN O *D gf180mcu_fd_sc_mcu7t5v0__nor2_1
*CAP
1 *9257:A3 3.34014e-05
2 *9256:ZN 3.34014e-05
3 *9257:A3 *9257:B2 0.000268824
4 *295:20 *9257:A3 0.000104092
*RES
1 *9256:ZN *9257:A3 18.728 
*END

*D_NET *319 0.0105109
*CONN
*I *9262:A2 I *D gf180mcu_fd_sc_mcu7t5v0__aoi21_1
*I *9257:ZN O *D gf180mcu_fd_sc_mcu7t5v0__oai32_1
*CAP
1 *9262:A2 0.00117292
2 *9257:ZN 0.00117292
3 *9262:A2 *9235:A2 2.31017e-06
4 *9262:A2 *9236:A2 5.27339e-05
5 *9262:A2 *9250:A2 0.000317315
6 *9262:A2 *9262:B 0.000240699
7 *9262:A2 *366:16 0.000136333
8 *9262:A2 *473:24 2.04597e-06
9 *9262:A2 *506:20 0.00139942
10 *9250:A3 *9262:A2 0.000385232
11 *9254:A3 *9262:A2 3.4596e-05
12 *9255:A2 *9262:A2 8.52105e-06
13 *9474:I *9262:A2 0.00138961
14 *9477:I *9262:A2 0.00040701
15 *9544:I *9262:A2 7.56248e-06
16 *295:20 *9262:A2 0.00378169
*RES
1 *9257:ZN *9262:A2 36.72 
*END

*D_NET *320 0.0011114
*CONN
*I *9261:A2 I *D gf180mcu_fd_sc_mcu7t5v0__nand4_1
*I *9258:ZN O *D gf180mcu_fd_sc_mcu7t5v0__aoi22_1
*CAP
1 *9261:A2 0.000260876
2 *9258:ZN 0.000260876
3 *9261:A2 *9258:A2 0.000412802
4 *9261:A2 *9258:B2 2.41004e-05
5 *9535:I *9261:A2 6.35093e-06
6 *9543:I *9261:A2 0.000104634
7 *128:26 *9261:A2 4.17612e-05
*RES
1 *9258:ZN *9261:A2 20.08 
*END

*D_NET *321 0.000906813
*CONN
*I *9261:A3 I *D gf180mcu_fd_sc_mcu7t5v0__nand4_1
*I *9259:ZN O *D gf180mcu_fd_sc_mcu7t5v0__oai22_1
*CAP
1 *9261:A3 8.64844e-05
2 *9259:ZN 8.64844e-05
3 *9261:A3 *9258:A2 0.000602913
4 *9535:I *9261:A3 0.000118583
5 *9537:I *9261:A3 1.23478e-05
*RES
1 *9259:ZN *9261:A3 19.56 
*END

*D_NET *322 0.0147454
*CONN
*I *9261:A4 I *D gf180mcu_fd_sc_mcu7t5v0__nand4_1
*I *9260:ZN O *D gf180mcu_fd_sc_mcu7t5v0__oai21_1
*CAP
1 *9261:A4 0.00108912
2 *9260:ZN 0.00108912
3 *9261:A4 *9262:B 0.000805679
4 *9261:A4 *332:14 0.000181972
5 *9261:A4 *513:20 0.00342276
6 *9261:A4 *513:49 0.000105749
7 *9261:A4 *517:20 0.000690597
8 tl_o[8] *9261:A4 0.00711433
9 *9244:B *9261:A4 8.76262e-05
10 *9480:I *9261:A4 8.42413e-05
11 *3:50 *9261:A4 7.41647e-05
*RES
1 *9260:ZN *9261:A4 39.424 
*END

*D_NET *323 0.011858
*CONN
*I *9262:B I *D gf180mcu_fd_sc_mcu7t5v0__aoi21_1
*I *9261:ZN O *D gf180mcu_fd_sc_mcu7t5v0__nand4_1
*CAP
1 *9262:B 0.00301453
2 *9261:ZN 0.00301453
3 *9262:B *9224:A2 0.000172995
4 *9262:B *9258:B2 0
5 *9262:B *9379:I0 0.000408518
6 *9262:B *9387:A1 0.000194852
7 *9262:B *9388:B 0.000547101
8 *9262:B *366:16 0.000200668
9 *9262:B *375:69 8.94558e-05
10 *9262:B *412:10 0.000192895
11 *9262:B *412:31 0.00139462
12 *9262:B *438:119 2.24654e-05
13 *9262:B *506:20 1.35134e-05
14 tl_o[52] *9262:B 8.5552e-06
15 tl_o[54] *9262:B 6.83584e-05
16 tl_o[57] *9262:B 0.000116815
17 *9250:B *9262:B 0.000600756
18 *9261:A4 *9262:B 0.000805679
19 *9262:A1 *9262:B 0.000113568
20 *9262:A2 *9262:B 0.000240699
21 *9477:I *9262:B 7.56902e-05
22 *9480:I *9262:B 0.000300659
23 *9485:I *9262:B 0.000258226
24 *9489:I *9262:B 2.81522e-06
*RES
1 *9261:ZN *9262:B 46.184 
*END

*D_NET *324 0.00300331
*CONN
*I *9263:A3 I *D gf180mcu_fd_sc_mcu7t5v0__and3_1
*I *9262:ZN O *D gf180mcu_fd_sc_mcu7t5v0__aoi21_1
*CAP
1 *9263:A3 0.000199023
2 *9262:ZN 0.000199023
3 *9263:A3 *9393:I0 5.469e-05
4 *9263:A3 *371:18 0.00102657
5 *9263:A3 *380:43 0.000487059
6 *9263:A3 *460:150 0.000394235
7 *9263:A3 *484:22 0.000216721
8 *9263:A3 *594:117 0.000425985
*RES
1 *9262:ZN *9263:A3 22.16 
*END

*D_NET *325 0.00870702
*CONN
*I *9312:A4 I *D gf180mcu_fd_sc_mcu7t5v0__nand4_4
*I *9264:A2 I *D gf180mcu_fd_sc_mcu7t5v0__nand2_1
*I *9265:A3 I *D gf180mcu_fd_sc_mcu7t5v0__nand3_4
*I *9263:Z O *D gf180mcu_fd_sc_mcu7t5v0__and3_1
*CAP
1 *9312:A4 0.000633807
2 *9264:A2 0
3 *9265:A3 0.000214492
4 *9263:Z 0.000426062
5 *325:12 0.000262235
6 *325:10 0.00110761
7 *9265:A3 *9269:A1 0.000199998
8 *9265:A3 *375:69 0.000184188
9 *9265:A3 *399:18 0
10 *9265:A3 *506:20 0.000203739
11 *9265:A3 *506:33 0.000337769
12 *9265:A3 *595:29 2.51389e-05
13 *9312:A4 *407:57 1.57479e-05
14 *9312:A4 *460:150 0
15 *9312:A4 *460:160 0.000410033
16 *9312:A4 *512:94 6.38863e-05
17 *9312:A4 *595:29 1.81504e-05
18 *325:10 *9253:A1 0.00129224
19 *325:10 *9269:A1 0.000241749
20 *325:10 *9393:I0 2.2658e-05
21 *325:10 *380:43 0.000131632
22 *325:10 *399:18 0
23 *325:10 *473:24 0.000454633
24 *325:10 *484:22 2.22621e-05
25 *325:12 *9269:A1 0.000250567
26 *325:12 *399:18 0
27 *9264:A1 *9312:A4 0.000169099
28 *9265:A1 *9312:A4 0.0010392
29 *9312:A3 *9312:A4 0.000891627
30 *9471:I *9265:A3 8.84878e-05
*RES
1 *9263:Z *325:10 13.784 
2 *325:10 *325:12 0.728 
3 *325:12 *9265:A3 11.912 
4 *325:12 *9264:A2 9 
5 *325:10 *9312:A4 18.464 
*END

*D_NET *326 0.00418988
*CONN
*I *9393:I0 I *D gf180mcu_fd_sc_mcu7t5v0__mux2_2
*I *9264:ZN O *D gf180mcu_fd_sc_mcu7t5v0__nand2_1
*CAP
1 *9393:I0 0.00041139
2 *9264:ZN 0.00041139
3 *9393:I0 *370:49 0.00075805
4 *9393:I0 *380:43 0.0010697
5 *9393:I0 *594:117 0.000511206
6 *9254:A3 *9393:I0 0.000825516
7 *9263:A3 *9393:I0 5.469e-05
8 *258:18 *9393:I0 0.000125283
9 *325:10 *9393:I0 2.2658e-05
*RES
1 *9264:ZN *9393:I0 24.032 
*END

*D_NET *327 0.0123262
*CONN
*I *9377:S I *D gf180mcu_fd_sc_mcu7t5v0__mux2_2
*I *9376:S I *D gf180mcu_fd_sc_mcu7t5v0__mux2_2
*I *9374:S I *D gf180mcu_fd_sc_mcu7t5v0__mux2_2
*I *9375:S I *D gf180mcu_fd_sc_mcu7t5v0__mux2_2
*I *9267:ZN O *D gf180mcu_fd_sc_mcu7t5v0__nor3_2
*CAP
1 *9377:S 0.000261727
2 *9376:S 0.000436526
3 *9374:S 0.000646252
4 *9375:S 9.81699e-05
5 *9267:ZN 0
6 *327:17 0.00218828
7 *327:13 0.00158829
8 *327:4 0.000319235
9 *9374:S *514:69 0.00325444
10 *9374:S *650:10 0.00130521
11 *9375:S *9449:RN 0.000440611
12 *9375:S *375:69 9.56679e-05
13 *9376:S *9376:I0 7.87395e-06
14 *9376:S *9376:I1 7.73997e-05
15 *9376:S *514:69 8.80888e-05
16 *9377:S *9301:A2 8.23267e-05
17 *9377:S *375:69 0.000134458
18 *9377:S *460:164 0.000199988
19 *9377:S *648:89 0
20 *327:13 *9449:RN 0.000654535
21 *327:13 *375:69 0.000172708
22 *327:13 *648:8 3.10787e-05
23 *327:13 *648:89 0
24 *327:17 *9301:A2 0
25 *327:17 *9397:CLK 5.40435e-05
26 *327:17 *9449:RN 8.078e-05
27 *327:17 *9449:CLK 9.74301e-05
28 *327:17 *438:72 1.11104e-05
29 *327:17 *514:69 0
30 *3:50 *9374:S 0
*RES
1 *9267:ZN *327:4 4.5 
2 *327:4 *9375:S 6.06 
3 *327:4 *327:13 2.6 
4 *327:13 *327:17 12.3 
5 *327:17 *9374:S 18.776 
6 *327:17 *9376:S 12.224 
7 *327:13 *9377:S 15.996 
*END

*D_NET *328 0.0108322
*CONN
*I *9280:A2 I *D gf180mcu_fd_sc_mcu7t5v0__and2_1
*I *9279:A2 I *D gf180mcu_fd_sc_mcu7t5v0__and2_1
*I *9278:A2 I *D gf180mcu_fd_sc_mcu7t5v0__and2_1
*I *9650:I I *D gf180mcu_fd_sc_mcu7t5v0__buf_2
*I *9272:ZN O *D gf180mcu_fd_sc_mcu7t5v0__nor3_2
*CAP
1 *9280:A2 0
2 *9279:A2 0
3 *9278:A2 0
4 *9650:I 0.00158101
5 *9272:ZN 0.000479735
6 *328:22 0.00193398
7 *328:20 0.00118939
8 *328:12 0.00131616
9 *9650:I *451:10 4.79893e-05
10 *328:12 *9272:A2 0.000243062
11 *328:12 *9394:A2 0.000498806
12 *328:12 *9395:B 0.000260006
13 *328:12 *371:8 7.9669e-06
14 *328:12 *372:18 0.000568029
15 *328:12 *449:16 8.02494e-05
16 *328:12 *594:26 6.41072e-05
17 *328:20 *9230:A1 0.000522341
18 *328:20 *9280:A1 0.000116578
19 *328:20 *9339:A1 4.39823e-05
20 *328:20 *9406:CLK 7.87395e-06
21 *328:20 *372:18 0.000268615
22 *328:20 *396:18 0.000124964
23 *328:20 *460:30 0
24 *328:22 *9339:A1 3.20057e-06
25 *9272:A3 *328:12 0.000112646
26 *9333:I0 *328:12 0.000234146
27 *9333:I0 *328:20 0
28 *9337:I0 *328:12 0.000688572
29 *201:10 *9650:I 0
30 *201:10 *328:22 0
31 *203:12 *328:20 0.000438808
*RES
1 *9272:ZN *328:12 20.156 
2 *328:12 *328:20 12.716 
3 *328:20 *328:22 2.6 
4 *328:22 *9650:I 22.104 
5 *328:22 *9278:A2 9 
6 *328:20 *9279:A2 9 
7 *328:12 *9280:A2 4.5 
*END

*D_NET *329 0.0270552
*CONN
*I *9283:A2 I *D gf180mcu_fd_sc_mcu7t5v0__and2_1
*I *9649:I I *D gf180mcu_fd_sc_mcu7t5v0__buf_2
*I *9285:A2 I *D gf180mcu_fd_sc_mcu7t5v0__and2_1
*I *9284:A2 I *D gf180mcu_fd_sc_mcu7t5v0__and2_1
*I *9282:ZN O *D gf180mcu_fd_sc_mcu7t5v0__nor3_2
*CAP
1 *9283:A2 7.50107e-05
2 *9649:I 0.000789181
3 *9285:A2 8.67962e-05
4 *9284:A2 8.34236e-05
5 *9282:ZN 0.000710259
6 *329:37 0.000950577
7 *329:26 0.00167798
8 *329:12 0.00230522
9 *9283:A2 *9639:I 0.000568841
10 *9284:A2 *9353:S 0.000104816
11 *9284:A2 *448:49 1.32276e-05
12 *9285:A2 *9284:A1 0
13 *9285:A2 *9633:D[2] 4.67771e-06
14 *9285:A2 *418:33 0
15 *9649:I *380:152 0.00147785
16 *329:12 *9221:A1 4.55764e-06
17 *329:12 *9252:A2 0.000742994
18 *329:12 *9282:A1 0.00022783
19 *329:12 *9282:A2 0.000447306
20 *329:12 *9389:I0 4.78732e-05
21 *329:12 *9392:I0 0.000103788
22 *329:12 *375:92 5.19122e-05
23 *329:26 *9247:A1 0.000379766
24 *329:26 *9390:S 0.00418391
25 *329:26 *9597:I 0.000543495
26 *329:26 *9633:D[2] 0.00131056
27 *329:26 *375:92 8.52513e-05
28 *329:26 *380:12 0.00066881
29 *329:26 *380:25 5.80085e-05
30 *329:26 *380:152 0.000271764
31 *329:26 *472:36 0.000767442
32 *329:37 *9633:D[2] 0.000585278
33 *329:37 *380:152 0.000802901
34 tl_o[24] *329:12 0.00155353
35 tl_o[24] *329:26 0.000163312
36 tl_o[53] *329:26 0.00102389
37 tl_o[65] *9283:A2 0.000195836
38 *9255:B *329:26 0.00270159
39 *9353:I0 *9284:A2 0.000408645
40 *9361:I0 *9285:A2 1.55348e-05
41 *9408:D *329:26 0.000594117
42 *255:14 *329:12 0.000245715
43 *295:24 *9283:A2 2.17376e-05
*RES
1 *9282:ZN *329:12 12.612 
2 *329:12 *329:26 32.788 
3 *329:26 *9284:A2 10.144 
4 *329:26 *329:37 2.184 
5 *329:37 *9285:A2 9.52 
6 *329:37 *9649:I 18.152 
7 *329:12 *9283:A2 15.06 
*END

*D_NET *330 0.0816613
*CONN
*I *9300:A2 I *D gf180mcu_fd_sc_mcu7t5v0__and2_1
*I *9298:A2 I *D gf180mcu_fd_sc_mcu7t5v0__and2_1
*I *9296:A2 I *D gf180mcu_fd_sc_mcu7t5v0__and2_1
*I *9295:A2 I *D gf180mcu_fd_sc_mcu7t5v0__and2_1
*I *9294:A2 I *D gf180mcu_fd_sc_mcu7t5v0__and2_1
*I *9293:A2 I *D gf180mcu_fd_sc_mcu7t5v0__and2_1
*I *9297:A2 I *D gf180mcu_fd_sc_mcu7t5v0__and2_1
*I *9299:A2 I *D gf180mcu_fd_sc_mcu7t5v0__and2_1
*I *9292:ZN O *D gf180mcu_fd_sc_mcu7t5v0__nor3_4
*CAP
1 *9300:A2 0.00371403
2 *9298:A2 0
3 *9296:A2 0
4 *9295:A2 0
5 *9294:A2 0
6 *9293:A2 0.000885266
7 *9297:A2 0
8 *9299:A2 0
9 *9292:ZN 0.00122429
10 *330:64 0.000963803
11 *330:60 0.000320456
12 *330:50 0.000329985
13 *330:46 0.00307184
14 *330:44 0.00306628
15 *330:35 0.00242983
16 *330:25 0.00256124
17 *330:10 0.00138649
18 *330:6 0.00611089
19 *9293:A2 *9294:A1 0.000860548
20 *9293:A2 *497:12 0.000661561
21 *9293:A2 *498:12 3.29691e-05
22 *9300:A2 *9634:D[7] 0.00106981
23 *9300:A2 *435:14 0.000466875
24 *9300:A2 *453:14 5.52791e-05
25 *330:6 *453:14 0.000774795
26 *330:10 *9299:A1 0.00196277
27 *330:10 *9643:I 0.000704299
28 *330:10 *435:14 0.000629226
29 *330:10 *443:41 0.000664685
30 *330:10 *556:10 5.469e-05
31 *330:25 *9167:A1 0.000367043
32 *330:25 *9645:I 0.0010264
33 *330:25 *556:10 0.00144989
34 *330:35 *413:28 0
35 *330:35 *434:25 0.0107628
36 *330:35 *434:29 0.00287541
37 *330:44 *9297:A1 3.22108e-05
38 *330:46 *9147:A2 0.00022888
39 *330:46 *9634:D[3] 0.00299686
40 *330:46 *9634:D[1] 0.00219572
41 *330:46 *434:46 0.00142161
42 *330:46 *434:50 0.000480456
43 *330:46 *498:12 0.00419943
44 *330:50 *9634:D[3] 4.67771e-06
45 *330:60 *9147:A1 3.52832e-05
46 *330:60 *9295:A1 3.22108e-05
47 *330:60 *9296:A1 4.18157e-05
48 *330:60 *9634:D[2] 4.67771e-06
49 *330:60 *9634:D[1] 0.00227406
50 *330:60 *497:12 0.00511606
51 *330:64 *9634:D[1] 0.000438808
52 *330:64 *497:12 4.41041e-05
53 *330:64 *498:12 0.000133705
54 *9169:A1 *330:46 0.00755424
55 *261:35 *330:10 0.000199988
56 *261:35 *330:25 0.000454018
57 *261:41 *330:46 0.003289
*RES
1 *9292:ZN *330:6 14.38 
2 *330:6 *330:10 20.828 
3 *330:10 *9299:A2 9 
4 *330:10 *330:25 10.636 
5 *330:25 *330:35 46.128 
6 *330:35 *9297:A2 4.5 
7 *330:35 *330:44 5.02 
8 *330:44 *330:46 78.728 
9 *330:46 *330:50 5.02 
10 *330:50 *330:60 23.248 
11 *330:60 *330:64 6.268 
12 *330:64 *9293:A2 20.44 
13 *330:64 *9294:A2 9 
14 *330:60 *9295:A2 4.5 
15 *330:50 *9296:A2 4.5 
16 *330:25 *9298:A2 4.5 
17 *330:6 *9300:A2 43.556 
*END

*D_NET *331 0.0668288
*CONN
*I *9310:A2 I *D gf180mcu_fd_sc_mcu7t5v0__and2_1
*I *9309:A2 I *D gf180mcu_fd_sc_mcu7t5v0__and2_1
*I *9308:A2 I *D gf180mcu_fd_sc_mcu7t5v0__and2_1
*I *9307:A2 I *D gf180mcu_fd_sc_mcu7t5v0__and2_1
*I *9306:A2 I *D gf180mcu_fd_sc_mcu7t5v0__and2_1
*I *9305:A2 I *D gf180mcu_fd_sc_mcu7t5v0__and2_1
*I *9304:A2 I *D gf180mcu_fd_sc_mcu7t5v0__and2_1
*I *9303:A2 I *D gf180mcu_fd_sc_mcu7t5v0__and2_1
*I *9302:ZN O *D gf180mcu_fd_sc_mcu7t5v0__nor3_4
*CAP
1 *9310:A2 0.00144077
2 *9309:A2 7.14284e-05
3 *9308:A2 0
4 *9307:A2 5.16421e-05
5 *9306:A2 0
6 *9305:A2 0
7 *9304:A2 0
8 *9303:A2 0.00194872
9 *9302:ZN 0.00276755
10 *331:80 0.00182383
11 *331:67 0.000991472
12 *331:52 0.00368662
13 *331:50 0.00308734
14 *331:39 0.00338174
15 *331:30 0.00367949
16 *331:21 0.00348155
17 *331:10 0.00776786
18 *9303:A2 *9635:D[0] 0.000941999
19 *9309:A2 *9635:D[6] 1.03283e-05
20 *9310:A2 *505:12 0.00487725
21 *9310:A2 *507:10 0
22 *331:10 *414:17 0.000295378
23 *331:21 *9304:A1 0.000185717
24 *331:39 *9188:A1 0.000464264
25 *331:39 *9192:A1 0.00123779
26 *331:50 *9192:A1 0.00011816
27 *331:50 *505:12 0.000281447
28 *331:52 *9192:A1 0.000200517
29 *331:52 *9208:A1 4.41041e-05
30 *331:52 *9208:A2 0.000371414
31 *331:52 *9635:D[5] 0.000100557
32 *331:52 *9635:D[4] 0.00798942
33 *331:52 *437:21 2.84715e-05
34 *331:52 *437:30 0.00354396
35 *331:52 *437:41 1.99013e-05
36 *331:52 *437:52 1.79889e-05
37 *331:52 *505:12 0.00598438
38 *331:67 *9208:A1 0.00160624
39 *331:67 *9635:D[5] 0.00274404
40 *331:67 *505:12 6.52129e-05
41 *331:80 *9208:A1 0.000111369
42 *331:80 *9635:D[6] 0.000411027
43 *331:80 *505:12 8.52783e-05
44 *331:80 *507:10 0
45 *278:69 *331:52 0.000680507
46 *278:84 *331:52 0.000232106
*RES
1 *9302:ZN *331:10 29.176 
2 *331:10 *9303:A2 24.704 
3 *331:10 *331:21 26.936 
4 *331:21 *9304:A2 9 
5 *331:21 *331:30 3.016 
6 *331:30 *9305:A2 9 
7 *331:30 *331:39 35.88 
8 *331:39 *9306:A2 9 
9 *331:39 *331:50 2.392 
10 *331:50 *331:52 72.8 
11 *331:52 *9307:A2 9.312 
12 *331:52 *331:67 22.18 
13 *331:67 *9308:A2 4.5 
14 *331:67 *331:80 7.1 
15 *331:80 *9309:A2 9.312 
16 *331:80 *9310:A2 24.6 
*END

*D_NET *332 0.0859117
*CONN
*I *9338:A3 I *D gf180mcu_fd_sc_mcu7t5v0__nand3_1
*I *9334:A3 I *D gf180mcu_fd_sc_mcu7t5v0__nand3_1
*I *9330:A3 I *D gf180mcu_fd_sc_mcu7t5v0__nand3_1
*I *9326:A3 I *D gf180mcu_fd_sc_mcu7t5v0__nand3_1
*I *9322:A3 I *D gf180mcu_fd_sc_mcu7t5v0__nand3_1
*I *9318:A3 I *D gf180mcu_fd_sc_mcu7t5v0__nand3_1
*I *9314:A3 I *D gf180mcu_fd_sc_mcu7t5v0__nand3_1
*I *9342:A3 I *D gf180mcu_fd_sc_mcu7t5v0__nand3_1
*I *9313:Z O *D gf180mcu_fd_sc_mcu7t5v0__and2_1
*CAP
1 *9338:A3 3.50877e-05
2 *9334:A3 0
3 *9330:A3 0.00010121
4 *9326:A3 0
5 *9322:A3 0
6 *9318:A3 0
7 *9314:A3 0.000118863
8 *9342:A3 0.000116923
9 *9313:Z 0.00331725
10 *332:49 0.000192397
11 *332:47 0.000680518
12 *332:45 0.00130273
13 *332:43 0.000917017
14 *332:35 0.000203534
15 *332:29 0.000235823
16 *332:18 0.000674313
17 *332:14 0.00375738
18 *9314:A3 *9314:A2 0.0017814
19 *9314:A3 *9318:A1 0.00162317
20 *9314:A3 *9322:A1 5.82251e-05
21 *9314:A3 *433:24 0.000188241
22 *9330:A3 *9330:A1 5.63044e-06
23 *9330:A3 *9330:A2 8.01631e-05
24 *9330:A3 *9464:I 0.000396403
25 *9338:A3 *9338:A1 2.81522e-06
26 *9338:A3 *9632:D[6] 0.000103788
27 *9342:A3 *9340:A1 0.000408707
28 *9342:A3 *9342:A1 7.4982e-06
29 *332:14 *9213:A1 8.42563e-06
30 *332:14 *9243:A1 3.27257e-05
31 *332:14 *9632:D[7] 0
32 *332:14 *401:20 0.000272618
33 *332:14 *402:18 0.00308643
34 *332:14 *513:37 2.35091e-05
35 *332:14 *513:49 1.42672e-05
36 *332:14 *514:48 0.000271774
37 *332:14 *514:69 0.000464049
38 *332:14 *650:10 0
39 *332:18 *9338:A1 0.00019255
40 *332:18 *9342:A1 6.8199e-07
41 *332:29 *367:12 0.000246201
42 *332:29 *433:10 0.000198172
43 *332:29 *433:12 0.000199998
44 *332:35 *9334:A1 1.19584e-05
45 *332:35 *9336:A1 6.8199e-07
46 *332:35 *9632:D[6] 0.00017298
47 *332:35 *9632:D[5] 0
48 *332:35 *367:12 7.34249e-05
49 *332:35 *433:12 0.000179413
50 *332:43 *9663:I 0.000352258
51 *332:43 *433:12 0.00028351
52 *332:43 *433:16 0.00205723
53 *332:43 *461:8 0.00376496
54 *332:45 *9663:I 0.000796644
55 *332:45 *433:16 0.00019118
56 *332:45 *433:18 0.0299667
57 *332:45 *454:10 0.0147797
58 *332:45 *456:8 0.000321744
59 *332:45 *461:8 0.00380244
60 *332:45 *467:8 0.00108205
61 *332:47 *9326:A1 0
62 *332:47 *433:18 0.000197059
63 *332:47 *433:20 0.0038171
64 *332:49 *9322:A1 0.000118787
65 *332:49 *433:20 0.000197059
66 *332:49 *433:24 0.000417612
67 tl_o[8] *332:14 0.000109564
68 *9241:B2 *332:14 0
69 *9244:B *332:14 1.13158e-05
70 *9261:A4 *332:14 0.000181972
71 *9311:A1 *332:14 0.000187117
72 *9632:WEN[7] *332:14 0
73 *3:50 *332:14 3.2098e-05
74 *189:34 *332:14 0
75 *296:14 *332:14 0.000410377
76 *304:18 *332:14 0.00107422
*RES
1 *9313:Z *332:14 45.816 
2 *332:14 *332:18 7.932 
3 *332:18 *9342:A3 5.644 
4 *332:18 *332:29 6.268 
5 *332:29 *332:35 5.54 
6 *332:35 *332:43 15.42 
7 *332:43 *332:45 75.608 
8 *332:45 *332:47 10.088 
9 *332:47 *332:49 1.56 
10 *332:49 *9314:A3 14.096 
11 *332:49 *9318:A3 9 
12 *332:47 *9322:A3 9 
13 *332:45 *9326:A3 9 
14 *332:43 *9330:A3 10.144 
15 *332:35 *9334:A3 4.5 
16 *332:29 *9338:A3 9.312 
*END

*D_NET *333 0.00369765
*CONN
*I *9316:A1 I *D gf180mcu_fd_sc_mcu7t5v0__nand2_1
*I *9314:ZN O *D gf180mcu_fd_sc_mcu7t5v0__nand3_1
*CAP
1 *9316:A1 0.0017295
2 *9314:ZN 0.0017295
3 *9316:A1 *9314:A1 4.63309e-05
4 *9316:A1 *9320:A1 0
5 *9316:A1 *9324:A1 0.00019231
*RES
1 *9314:ZN *9316:A1 30.584 
*END

*D_NET *334 0.000803476
*CONN
*I *9316:A2 I *D gf180mcu_fd_sc_mcu7t5v0__nand2_1
*I *9315:ZN O *D gf180mcu_fd_sc_mcu7t5v0__nand2_1
*CAP
1 *9316:A2 0.000112955
2 *9315:ZN 0.000112955
3 *9316:A2 *9315:A1 0.000158277
4 *9316:A2 *9324:A1 0.00041929
*RES
1 *9315:ZN *9316:A2 20.392 
*END

*D_NET *335 0.00447271
*CONN
*I *9320:A1 I *D gf180mcu_fd_sc_mcu7t5v0__nand2_1
*I *9318:ZN O *D gf180mcu_fd_sc_mcu7t5v0__nand3_1
*CAP
1 *9320:A1 0.00138774
2 *9318:ZN 0.00138774
3 *9320:A1 *9314:A2 0.00017298
4 *9320:A1 *9322:A1 2.42026e-05
5 *9320:A1 *9324:A1 0
6 *9320:A1 *9328:A1 0.000582256
7 *9320:A1 *433:20 0.000810085
8 *9320:A1 *433:24 0.000107711
9 *9316:A1 *9320:A1 0
*RES
1 *9318:ZN *9320:A1 32.872 
*END

*D_NET *336 0.00191884
*CONN
*I *9320:A2 I *D gf180mcu_fd_sc_mcu7t5v0__nand2_1
*I *9319:ZN O *D gf180mcu_fd_sc_mcu7t5v0__nand2_1
*CAP
1 *9320:A2 0.000628499
2 *9319:ZN 0.000628499
3 *9320:A2 *9319:A2 0.000116101
4 *9320:A2 *9323:A1 0
5 *9320:A2 *9323:A2 0
6 *9320:A2 *9324:A2 1.18566e-06
7 *9320:A2 *9328:A1 0.000483386
8 *9320:A2 *424:39 6.11708e-05
*RES
1 *9319:ZN *9320:A2 23.616 
*END

*D_NET *337 0.00361958
*CONN
*I *9324:A1 I *D gf180mcu_fd_sc_mcu7t5v0__nand2_1
*I *9322:ZN O *D gf180mcu_fd_sc_mcu7t5v0__nand3_1
*CAP
1 *9324:A1 0.00141219
2 *9322:ZN 0.00141219
3 *9324:A1 *9315:A1 5.94737e-06
4 *9324:A1 *9315:A2 0.000132321
5 *9324:A1 *9322:A1 3.65102e-05
6 *9316:A1 *9324:A1 0.00019231
7 *9316:A2 *9324:A1 0.00041929
8 *9320:A1 *9324:A1 0
9 *197:10 *9324:A1 0
10 *199:10 *9324:A1 8.82081e-06
*RES
1 *9322:ZN *9324:A1 29.856 
*END

*D_NET *338 0.00180825
*CONN
*I *9324:A2 I *D gf180mcu_fd_sc_mcu7t5v0__nand2_1
*I *9323:ZN O *D gf180mcu_fd_sc_mcu7t5v0__nand2_1
*CAP
1 *9324:A2 0.000328187
2 *9323:ZN 0.000328187
3 *9324:A2 *9323:A1 0.00084993
4 *9324:A2 *424:39 9.35542e-06
5 *9320:A2 *9324:A2 1.18566e-06
6 *198:12 *9324:A2 0.000182028
7 *199:10 *9324:A2 0.00010938
*RES
1 *9323:ZN *9324:A2 21.952 
*END

*D_NET *339 0.0034088
*CONN
*I *9328:A1 I *D gf180mcu_fd_sc_mcu7t5v0__nand2_1
*I *9326:ZN O *D gf180mcu_fd_sc_mcu7t5v0__nand3_1
*CAP
1 *9328:A1 0.00114841
2 *9326:ZN 0.00114841
3 *9328:A1 *9326:A1 4.63426e-05
4 *9328:A1 *424:33 0
5 *9328:A1 *424:39 0
6 *9320:A1 *9328:A1 0.000582256
7 *9320:A2 *9328:A1 0.000483386
*RES
1 *9326:ZN *9328:A1 28.296 
*END

*D_NET *340 0.000527199
*CONN
*I *9328:A2 I *D gf180mcu_fd_sc_mcu7t5v0__nand2_1
*I *9327:ZN O *D gf180mcu_fd_sc_mcu7t5v0__nand2_1
*CAP
1 *9328:A2 9.03388e-05
2 *9327:ZN 9.03388e-05
3 *9328:A2 *9327:A1 0.000222723
4 *9328:A2 *424:33 0.000123798
*RES
1 *9327:ZN *9328:A2 10.352 
*END

*D_NET *341 0.00337393
*CONN
*I *9332:A1 I *D gf180mcu_fd_sc_mcu7t5v0__nand2_1
*I *9330:ZN O *D gf180mcu_fd_sc_mcu7t5v0__nand3_1
*CAP
1 *9332:A1 0.000730884
2 *9330:ZN 0.000730884
3 *9332:A1 *9331:A1 0.000367043
4 *9332:A1 *9464:I 0.000119868
5 *9332:A1 *372:28 0
6 *9332:A1 *378:8 0.000134833
7 *9332:A1 *424:29 0.00129042
*RES
1 *9330:ZN *9332:A1 27.152 
*END

*D_NET *342 0.000914509
*CONN
*I *9332:A2 I *D gf180mcu_fd_sc_mcu7t5v0__nand2_1
*I *9331:ZN O *D gf180mcu_fd_sc_mcu7t5v0__nand2_1
*CAP
1 *9332:A2 9.62864e-06
2 *9331:ZN 9.62864e-06
3 *9332:A2 *9331:A1 0.000447626
4 *9332:A2 *424:29 0.000447626
*RES
1 *9331:ZN *9332:A2 19.144 
*END

*D_NET *343 0.00481914
*CONN
*I *9336:A1 I *D gf180mcu_fd_sc_mcu7t5v0__nand2_1
*I *9334:ZN O *D gf180mcu_fd_sc_mcu7t5v0__nand3_1
*CAP
1 *9336:A1 0.00109494
2 *9334:ZN 0.00109494
3 *9336:A1 *9331:A2 2.38773e-05
4 *9336:A1 *9632:D[6] 0
5 *9336:A1 *9632:D[5] 0.00021052
6 *9336:A1 *378:71 0.000832937
7 *9336:A1 *378:80 0.000895252
8 *9336:A1 *449:16 0.00032809
9 *9333:I0 *9336:A1 6.96367e-05
10 *9404:D *9336:A1 4.67771e-06
11 *201:10 *9336:A1 5.47783e-05
12 *202:12 *9336:A1 0.000208806
13 *332:35 *9336:A1 6.8199e-07
*RES
1 *9334:ZN *9336:A1 28.192 
*END

*D_NET *344 0.000128616
*CONN
*I *9336:A2 I *D gf180mcu_fd_sc_mcu7t5v0__nand2_1
*I *9335:ZN O *D gf180mcu_fd_sc_mcu7t5v0__nand2_1
*CAP
1 *9336:A2 4.46232e-05
2 *9335:ZN 4.46232e-05
3 *9336:A2 *460:30 3.93698e-05
*RES
1 *9335:ZN *9336:A2 9.52 
*END

*D_NET *345 0.00310915
*CONN
*I *9340:A1 I *D gf180mcu_fd_sc_mcu7t5v0__nand2_1
*I *9338:ZN O *D gf180mcu_fd_sc_mcu7t5v0__nand3_1
*CAP
1 *9340:A1 0.000712585
2 *9338:ZN 0.000712585
3 *9340:A1 *9271:A1 0
4 *9340:A1 *9271:A2 0
5 *9340:A1 *9339:A1 1.36398e-06
6 *9340:A1 *9340:A2 1.26446e-05
7 *9340:A1 *9343:A1 0.00086392
8 *9340:A1 *9343:A2 6.60693e-05
9 *9340:A1 *9632:D[6] 0
10 *9340:A1 *438:12 0.000331272
11 *9272:A3 *9340:A1 0
12 *9342:A3 *9340:A1 0.000408707
*RES
1 *9338:ZN *9340:A1 15.552 
*END

*D_NET *346 0.000901036
*CONN
*I *9340:A2 I *D gf180mcu_fd_sc_mcu7t5v0__nand2_1
*I *9339:ZN O *D gf180mcu_fd_sc_mcu7t5v0__nand2_1
*CAP
1 *9340:A2 0.000179667
2 *9339:ZN 0.000179667
3 *9340:A2 *9335:A1 0.000337769
4 *9340:A2 *9339:A1 0.000125945
5 *9340:A2 *9343:A1 6.53438e-05
6 *9340:A1 *9340:A2 1.26446e-05
*RES
1 *9339:ZN *9340:A2 11.184 
*END

*D_NET *347 0.00407966
*CONN
*I *9344:A1 I *D gf180mcu_fd_sc_mcu7t5v0__nand2_1
*I *9342:ZN O *D gf180mcu_fd_sc_mcu7t5v0__nand3_1
*CAP
1 *9344:A1 0.00041307
2 *9342:ZN 0.00041307
3 *9344:A1 *9344:A2 0.000913264
4 *9344:A1 *9406:CLK 1.91879e-05
5 *9344:A1 *372:28 0.000753106
6 *9344:A1 *396:18 0.000165398
7 *9344:A1 *424:8 5.1032e-05
8 *9344:A1 *463:8 0.000784644
9 *9405:D *9344:A1 0.000306249
10 *202:12 *9344:A1 0.000260638
*RES
1 *9342:ZN *9344:A1 24.24 
*END

*D_NET *348 0.00325531
*CONN
*I *9344:A2 I *D gf180mcu_fd_sc_mcu7t5v0__nand2_1
*I *9343:ZN O *D gf180mcu_fd_sc_mcu7t5v0__nand2_1
*CAP
1 *9344:A2 0.000278725
2 *9343:ZN 0.000278725
3 *9344:A2 *9335:A2 8.42801e-05
4 *9344:A2 *9406:CLK 1.07369e-05
5 *9344:A2 *375:74 0.000484574
6 *9344:A2 *424:8 0.000157368
7 *9344:A2 *424:19 5.39368e-06
8 *9344:A2 *438:12 0.00104224
9 *9344:A1 *9344:A2 0.000913264
*RES
1 *9343:ZN *9344:A2 23.616 
*END

*D_NET *349 0.00318617
*CONN
*I *9348:A1 I *D gf180mcu_fd_sc_mcu7t5v0__nand2_1
*I *9346:ZN O *D gf180mcu_fd_sc_mcu7t5v0__nand3_1
*CAP
1 *9348:A1 0.000590656
2 *9346:ZN 0.000590656
3 *9348:A1 *9578:I 0
4 *9348:A1 *9596:I 0
5 *9348:A1 *368:37 0.000182411
6 *9348:A1 *371:26 0.0015246
7 *9348:A1 *436:10 0
8 *9348:A1 *448:61 0.000297853
*RES
1 *9346:ZN *9348:A1 24.344 
*END

*D_NET *350 0.000158034
*CONN
*I *9348:A2 I *D gf180mcu_fd_sc_mcu7t5v0__nand2_1
*I *9347:ZN O *D gf180mcu_fd_sc_mcu7t5v0__nand2_1
*CAP
1 *9348:A2 7.90168e-05
2 *9347:ZN 7.90168e-05
*RES
1 *9347:ZN *9348:A2 9.52 
*END

*D_NET *351 0.0055767
*CONN
*I *9352:A1 I *D gf180mcu_fd_sc_mcu7t5v0__nand2_1
*I *9350:ZN O *D gf180mcu_fd_sc_mcu7t5v0__nand3_1
*CAP
1 *9352:A1 0.000896294
2 *9350:ZN 0.000896294
3 *9352:A1 *9185:A1 0.000180675
4 *9352:A1 *9347:A2 3.80819e-05
5 *9352:A1 *9356:A2 0.000527358
6 *9352:A1 *9411:CLK 0.000180263
7 *9352:A1 *9633:D[2] 0.000145624
8 *9352:A1 *9633:D[1] 0
9 *9352:A1 *381:83 1.27019e-05
10 *9352:A1 *440:10 0.000330168
11 *9352:A1 *448:49 0.00134581
12 *9353:I0 *9352:A1 1.71326e-05
13 *9409:D *9352:A1 0.000135232
14 *207:12 *9352:A1 0.000871065
*RES
1 *9350:ZN *9352:A1 29.336 
*END

*D_NET *352 0.000682453
*CONN
*I *9352:A2 I *D gf180mcu_fd_sc_mcu7t5v0__nand2_1
*I *9351:ZN O *D gf180mcu_fd_sc_mcu7t5v0__nand2_1
*CAP
1 *9352:A2 0.000113603
2 *9351:ZN 0.000113603
3 *9352:A2 *9355:A1 0.00037585
4 *9352:A2 *9355:A2 7.93961e-05
5 *9352:A2 *9411:CLK 0
*RES
1 *9351:ZN *9352:A2 19.56 
*END

*D_NET *353 0.00107625
*CONN
*I *9356:A1 I *D gf180mcu_fd_sc_mcu7t5v0__nand2_1
*I *9354:ZN O *D gf180mcu_fd_sc_mcu7t5v0__nand3_1
*CAP
1 *9356:A1 0.000196795
2 *9354:ZN 0.000196795
3 *9356:A1 *9347:A2 0.000395772
4 *9356:A1 *9633:D[1] 0
5 *9356:A1 *431:12 0.000186638
6 *222:6 *9356:A1 0.000100253
*RES
1 *9354:ZN *9356:A1 21.12 
*END

*D_NET *354 0.00139346
*CONN
*I *9356:A2 I *D gf180mcu_fd_sc_mcu7t5v0__nand2_1
*I *9355:ZN O *D gf180mcu_fd_sc_mcu7t5v0__nand2_1
*CAP
1 *9356:A2 0.000367115
2 *9355:ZN 0.000367115
3 *9356:A2 *9355:A2 1.12327e-05
4 *9356:A2 *9411:CLK 5.62982e-05
5 *9356:A2 *9633:D[1] 0
6 *9356:A2 *428:27 6.43437e-05
7 *9352:A1 *9356:A2 0.000527358
8 *9409:D *9356:A2 0
*RES
1 *9355:ZN *9356:A2 12.328 
*END

*D_NET *355 0.00408475
*CONN
*I *9360:A1 I *D gf180mcu_fd_sc_mcu7t5v0__nand2_1
*I *9358:ZN O *D gf180mcu_fd_sc_mcu7t5v0__nand3_1
*CAP
1 *9360:A1 0.000743798
2 *9358:ZN 0.000743798
3 *9360:A1 *428:8 0
4 *9360:A1 *466:14 0.00128579
5 *9360:A1 *468:18 0.00129776
6 *9360:A1 *470:12 1.36139e-05
*RES
1 *9358:ZN *9360:A1 25.488 
*END

*D_NET *356 0.000690034
*CONN
*I *9360:A2 I *D gf180mcu_fd_sc_mcu7t5v0__nand2_1
*I *9359:ZN O *D gf180mcu_fd_sc_mcu7t5v0__nand2_1
*CAP
1 *9360:A2 7.35695e-05
2 *9359:ZN 7.35695e-05
3 *9360:A2 *428:53 0.000542895
*RES
1 *9359:ZN *9360:A2 19.352 
*END

*D_NET *357 0.00515451
*CONN
*I *9364:A1 I *D gf180mcu_fd_sc_mcu7t5v0__nand2_1
*I *9362:ZN O *D gf180mcu_fd_sc_mcu7t5v0__nand3_1
*CAP
1 *9364:A1 0.00137948
2 *9362:ZN 0.00137948
3 *9364:A1 *9368:A1 0.000352098
4 *9364:A1 *9368:A2 4.67771e-06
5 *9364:A1 *9372:A1 0.000165553
6 *9364:A1 *430:36 0
7 *9364:A1 *430:49 0
8 *9364:A1 *459:12 9.61989e-05
9 *9364:A1 *462:12 0.00177703
*RES
1 *9362:ZN *9364:A1 31.208 
*END

*D_NET *358 0.00012122
*CONN
*I *9364:A2 I *D gf180mcu_fd_sc_mcu7t5v0__nand2_1
*I *9363:ZN O *D gf180mcu_fd_sc_mcu7t5v0__nand2_1
*CAP
1 *9364:A2 6.06099e-05
2 *9363:ZN 6.06099e-05
*RES
1 *9363:ZN *9364:A2 9.52 
*END

*D_NET *359 0.00406581
*CONN
*I *9368:A1 I *D gf180mcu_fd_sc_mcu7t5v0__nand2_1
*I *9366:ZN O *D gf180mcu_fd_sc_mcu7t5v0__nand3_1
*CAP
1 *9368:A1 0.00152889
2 *9366:ZN 0.00152889
3 *9368:A1 *9366:A1 3.32327e-05
4 *9368:A1 *9368:A2 3.4596e-05
5 *9368:A1 *9372:A1 0.000588102
6 *9364:A1 *9368:A1 0.000352098
*RES
1 *9366:ZN *9368:A1 31.208 
*END

*D_NET *360 0.000455699
*CONN
*I *9368:A2 I *D gf180mcu_fd_sc_mcu7t5v0__nand2_1
*I *9367:ZN O *D gf180mcu_fd_sc_mcu7t5v0__nand2_1
*CAP
1 *9368:A2 0.000182814
2 *9367:ZN 0.000182814
3 *9364:A1 *9368:A2 4.67771e-06
4 *9368:A1 *9368:A2 3.4596e-05
5 *210:10 *9368:A2 5.07976e-05
*RES
1 *9367:ZN *9368:A2 10.248 
*END

*D_NET *361 0.00670269
*CONN
*I *9372:A1 I *D gf180mcu_fd_sc_mcu7t5v0__nand2_1
*I *9370:ZN O *D gf180mcu_fd_sc_mcu7t5v0__nand3_1
*CAP
1 *9372:A1 0.00140024
2 *9370:ZN 0.00140024
3 *9372:A1 *9143:A1 0.0001823
4 *9372:A1 *9143:A2 0.000495329
5 *9372:A1 *9362:A1 1.40331e-05
6 *9372:A1 *9366:A1 5.63044e-06
7 *9372:A1 *430:49 7.55008e-05
8 *9144:A1 *9372:A1 0.00236864
9 *9364:A1 *9372:A1 0.000165553
10 *9368:A1 *9372:A1 0.000588102
11 *212:12 *9372:A1 7.11788e-06
*RES
1 *9370:ZN *9372:A1 34.64 
*END

*D_NET *362 0.000266684
*CONN
*I *9372:A2 I *D gf180mcu_fd_sc_mcu7t5v0__nand2_1
*I *9371:ZN O *D gf180mcu_fd_sc_mcu7t5v0__nand2_1
*CAP
1 *9372:A2 0.000133342
2 *9371:ZN 0.000133342
*RES
1 *9371:ZN *9372:A2 10.144 
*END

*D_NET *363 0.00665263
*CONN
*I *9388:B I *D gf180mcu_fd_sc_mcu7t5v0__oai21_1
*I *9387:ZN O *D gf180mcu_fd_sc_mcu7t5v0__nand2_1
*CAP
1 *9388:B 0.000813133
2 *9387:ZN 0.000813133
3 *9388:B *9224:A2 2.42612e-05
4 *9388:B *9591:I 0.000775319
5 *9388:B *9639:I 0.000437785
6 *9388:B *460:150 0.000251819
7 *9388:B *512:94 0.000455434
8 *9262:B *9388:B 0.000547101
9 *9393:S *9388:B 0.00145505
10 *9477:I *9388:B 0.000271774
11 *295:20 *9388:B 0.000807817
*RES
1 *9387:ZN *9388:B 29.128 
*END

*D_NET *364 0.014796
*CONN
*I *9395:B I *D gf180mcu_fd_sc_mcu7t5v0__oai21_1
*I *9394:ZN O *D gf180mcu_fd_sc_mcu7t5v0__nand2_1
*CAP
1 *9395:B 0.00215271
2 *9394:ZN 0.00215271
3 *9395:B *9226:A1 0
4 *9395:B *9226:A2 0.000352569
5 *9395:B *9230:A2 0.000174811
6 *9395:B *9394:A2 4.88765e-05
7 *9395:B *9395:A1 8.01439e-05
8 *9395:B *9592:I 6.32895e-05
9 *9395:B *9632:D[7] 0.000245726
10 *9395:B *372:18 0.000453302
11 *9395:B *396:18 2.13874e-05
12 *9395:B *405:31 0.00122512
13 *9395:B *422:85 0
14 *9395:B *511:8 9.76253e-05
15 *9395:B *594:26 0.00682907
16 tl_o[0] *9395:B 0.000170179
17 tl_o[3] *9395:B 0.000245642
18 *9395:A2 *9395:B 1.78817e-06
19 *9537:I *9395:B 0.000221001
20 *328:12 *9395:B 0.000260006
*RES
1 *9394:ZN *9395:B 45.352 
*END

*D_NET *365 0.0619259
*CONN
*I *9666:I I *D gf180mcu_fd_sc_mcu7t5v0__buf_8
*I *9665:I I *D gf180mcu_fd_sc_mcu7t5v0__buf_8
*I *9223:Z O *D gf180mcu_fd_sc_mcu7t5v0__and2_2
*CAP
1 *9666:I 0.0034975
2 *9665:I 0
3 *9223:Z 0.000433067
4 *365:30 0.00530074
5 *365:14 0.00923131
6 *9666:I *9252:A1 0.000282758
7 *9666:I *9282:A1 0.000195022
8 *9666:I *9282:A2 0.000292303
9 *9666:I *9578:I 0.000286192
10 *9666:I *369:45 0.0197947
11 *9666:I *375:74 0.000155511
12 *9666:I *375:92 0.000245343
13 *9666:I *438:119 0.0001815
14 *9666:I *449:129 0.000169589
15 *9666:I *473:24 0.000410279
16 *9666:I *512:26 0.000154827
17 *365:14 *369:18 0
18 *365:14 *449:38 0
19 *365:14 *594:26 4.41346e-05
20 *365:30 *9343:A2 0.00015283
21 *365:30 *9655:I 0.00027749
22 *365:30 *9657:I 0.0113071
23 *365:30 *9659:I 0.00241604
24 *365:30 *9663:I 0
25 *365:30 *368:37 0.00186025
26 *365:30 *369:45 0.000786536
27 *365:30 *371:18 0.000307388
28 *365:30 *372:28 0.00143311
29 *365:30 *375:74 0.00030592
30 *365:30 *438:33 2.1412e-05
31 *365:30 *463:8 0.000980583
32 *9272:A3 *365:30 0.000159049
33 *9388:A1 *9666:I 0.000138675
34 *9395:A2 *365:30 0.000293327
35 *9473:I *9666:I 0.000269338
36 *9481:I *365:14 0.00011484
37 *128:26 *365:30 0.000264668
38 *248:29 *9666:I 0.000162518
*RES
1 *9223:Z *365:14 20.4849 
2 *365:14 *365:30 47.285 
3 *365:30 *9665:I 9 
4 *365:14 *9666:I 35.855 
*END

*D_NET *366 0.0652563
*CONN
*I *9664:I I *D gf180mcu_fd_sc_mcu7t5v0__buf_8
*I *9663:I I *D gf180mcu_fd_sc_mcu7t5v0__buf_8
*I *9224:Z O *D gf180mcu_fd_sc_mcu7t5v0__and2_2
*CAP
1 *9664:I 0.0033773
2 *9663:I 0.00701367
3 *9224:Z 0.00132981
4 *366:16 0.0117208
5 *9663:I *9330:A1 0.000169549
6 *9663:I *9394:A1 0.000177481
7 *9663:I *9632:D[7] 0.000258655
8 *9663:I *9655:I 6.33156e-05
9 *9663:I *367:29 0.000481797
10 *9663:I *372:53 0.0160507
11 *9663:I *426:12 0.000174402
12 *9663:I *433:10 0.000197097
13 *9663:I *433:16 0.000267011
14 *9663:I *433:18 0.00072123
15 *9663:I *456:8 0.0014125
16 *9663:I *458:14 0.00125164
17 *9663:I *461:8 0.0017329
18 *9663:I *517:20 0.000396632
19 *9663:I *604:23 0.000668017
20 *9664:I *9138:A2 0.00014297
21 *9664:I *9253:A2 0.000472337
22 *9664:I *9633:D[1] 0.000152626
23 *9664:I *367:29 0.000790914
24 *9664:I *368:37 0
25 *9664:I *372:53 0.0127183
26 *9664:I *439:16 0.000129577
27 *9664:I *455:18 0.000116268
28 *9664:I *466:14 0.000150447
29 *9664:I *599:8 0.00012325
30 *366:16 *506:20 0.000265501
31 *9186:A1 *9664:I 0.000101886
32 *9241:B2 *9663:I 0.000260844
33 *9262:A2 *366:16 0.000136333
34 *9262:B *366:16 0.000200668
35 *9471:I *9664:I 0.000881035
36 *332:43 *9663:I 0.000352258
37 *332:45 *9663:I 0.000796644
38 *365:30 *9663:I 0
*RES
1 *9224:Z *366:16 25.5957 
2 *366:16 *9663:I 49.3003 
3 *366:16 *9664:I 33.7094 
*END

*D_NET *367 0.0486543
*CONN
*I *9662:I I *D gf180mcu_fd_sc_mcu7t5v0__buf_8
*I *9661:I I *D gf180mcu_fd_sc_mcu7t5v0__buf_8
*I *9225:Z O *D gf180mcu_fd_sc_mcu7t5v0__and2_2
*CAP
1 *9662:I 5.83222e-05
2 *9661:I 0.000552103
3 *9225:Z 4.68202e-05
4 *367:29 0.00198483
5 *367:27 0.00208532
6 *367:12 0.00198387
7 *367:6 0.00163739
8 *9661:I *372:28 0.000146882
9 *9661:I *433:18 0.00167428
10 *9661:I *463:8 0.00106546
11 *9661:I *469:8 0.000202879
12 *9662:I *495:14 7.0919e-05
13 *367:6 *402:18 9.7618e-05
14 *367:12 *9342:A1 0.00103527
15 *367:12 *9342:A2 0.00300149
16 *367:12 *9655:I 0.00010967
17 *367:12 *433:10 7.48872e-05
18 *367:12 *433:12 4.73563e-05
19 *367:12 *433:16 0.00155834
20 *367:12 *433:18 0.00160247
21 *367:12 *463:8 0.00195546
22 *367:27 *402:18 0.000433973
23 *367:29 *9134:A2 0.000163052
24 *367:29 *9138:A2 0.0011905
25 *367:29 *9241:A1 5.01417e-05
26 *367:29 *9251:A2 0.000102348
27 *367:29 *9260:A2 0.00045684
28 *367:29 *9394:A1 0.000972564
29 *367:29 *9632:D[7] 0.000394672
30 *367:29 *380:47 0.000413306
31 *367:29 *426:12 0.000435777
32 *367:29 *506:20 0.00052233
33 *367:29 *517:20 0.00456921
34 *367:29 *594:117 0.000698829
35 *367:29 *599:8 0.00099996
36 *367:29 *604:23 0.00590575
37 *9186:A1 *367:29 0.00029435
38 *9238:A1 *367:6 5.6979e-06
39 *9238:A1 *367:27 1.40398e-05
40 *9245:A3 *367:29 0.000737647
41 *9265:A2 *367:29 0.00250598
42 *9442:D *367:29 0.000470241
43 *9470:I *367:29 0.000640099
44 *9471:I *367:29 0.00409299
45 *9663:I *367:29 0.000481797
46 *9664:I *367:29 0.000790914
47 *332:29 *367:12 0.000246201
48 *332:35 *367:12 7.34249e-05
*RES
1 *9225:Z *367:6 4.812 
2 *367:6 *367:12 36.428 
3 *367:12 *9661:I 23.872 
4 *367:6 *367:27 5.852 
5 *367:27 *367:29 52.936 
6 *367:29 *9662:I 9.52 
*END

*D_NET *368 0.0535092
*CONN
*I *9660:I I *D gf180mcu_fd_sc_mcu7t5v0__buf_8
*I *9659:I I *D gf180mcu_fd_sc_mcu7t5v0__buf_4
*I *9226:Z O *D gf180mcu_fd_sc_mcu7t5v0__and2_2
*CAP
1 *9660:I 0
2 *9659:I 0.000528349
3 *9226:Z 5.42521e-05
4 *368:37 0.00539203
5 *368:12 0.00597463
6 *9659:I *9655:I 0.00388678
7 *9659:I *9657:I 4.5578e-06
8 *368:37 *9654:I 0.00154803
9 *368:37 *9655:I 0.00198824
10 *368:37 *9657:I 0.000133745
11 *368:37 *369:45 0.00693149
12 *368:37 *370:55 0.000555629
13 *368:37 *371:18 0.00131277
14 *368:37 *371:26 0.000808523
15 *368:37 *372:53 0.000440675
16 *368:37 *431:22 0.00588962
17 *368:37 *439:16 0.0132336
18 *368:37 *440:34 0.000252851
19 *368:37 *459:12 0.000114799
20 *9348:A1 *368:37 0.000182411
21 *9664:I *368:37 0
22 *365:30 *9659:I 0.00241604
23 *365:30 *368:37 0.00186025
*RES
1 *9226:Z *368:12 18.234 
2 *368:12 *9659:I 24.2518 
3 *368:12 *368:37 47.4498 
4 *368:37 *9660:I 13.5 
*END

*D_NET *369 0.07007
*CONN
*I *9658:I I *D gf180mcu_fd_sc_mcu7t5v0__buf_8
*I *9657:I I *D gf180mcu_fd_sc_mcu7t5v0__buf_8
*I *9227:Z O *D gf180mcu_fd_sc_mcu7t5v0__and2_2
*CAP
1 *9658:I 0
2 *9657:I 0.00233134
3 *9227:Z 0.000404819
4 *369:45 0.00270778
5 *369:18 0.00544394
6 *9657:I *9556:I 0.00020934
7 *9657:I *375:74 0.000857814
8 *9657:I *402:18 0.000111066
9 *9657:I *438:29 0.000614782
10 *9657:I *512:32 0.000137314
11 *369:18 *370:14 0.000692979
12 *369:18 *380:57 0.00108927
13 *369:18 *449:32 1.17078e-05
14 *369:18 *449:38 0.000353656
15 *369:45 *9236:A2 0.000229513
16 *369:45 *431:22 0.0141513
17 *369:45 *473:24 0.000248469
18 tl_o[4] *369:18 0.00129209
19 *9250:B *369:45 0.000215209
20 *9659:I *9657:I 4.5578e-06
21 *9666:I *369:45 0.0197947
22 *128:26 *369:18 0
23 *189:28 *9657:I 9.5197e-06
24 *365:14 *369:18 0
25 *365:30 *9657:I 0.0113071
26 *365:30 *369:45 0.000786536
27 *368:37 *9657:I 0.000133745
28 *368:37 *369:45 0.00693149
*RES
1 *9227:Z *369:18 24.3551 
2 *369:18 *9657:I 31.053 
3 *369:18 *369:45 48.0891 
4 *369:45 *9658:I 4.5 
*END

*D_NET *370 0.0540966
*CONN
*I *9656:I I *D gf180mcu_fd_sc_mcu7t5v0__buf_8
*I *9655:I I *D gf180mcu_fd_sc_mcu7t5v0__buf_4
*I *9228:Z O *D gf180mcu_fd_sc_mcu7t5v0__and2_2
*CAP
1 *9656:I 9.06705e-05
2 *9655:I 0.00134125
3 *9228:Z 0.000275618
4 *370:55 0.00197645
5 *370:49 0.00340855
6 *370:14 0.00313963
7 *9655:I *9234:B 0.00049267
8 *9655:I *9342:A2 0.000138032
9 *9655:I *371:18 3.90227e-05
10 *9655:I *372:53 0.00334153
11 *9655:I *396:18 0.000783864
12 *9655:I *422:85 0.00010353
13 *9655:I *432:17 0.000362356
14 *9655:I *438:33 1.77497e-05
15 *9656:I *9654:I 4.47868e-05
16 *370:14 *380:57 0.0004162
17 *370:14 *438:33 0.000839875
18 *370:14 *449:32 2.95329e-05
19 *370:14 *449:38 0.000218399
20 *370:49 *9135:A1 0.000793814
21 *370:49 *9234:B 0.000895244
22 *370:49 *9346:A1 0.00389976
23 *370:49 *371:18 0.000114217
24 *370:49 *380:47 2.19312e-06
25 *370:49 *439:16 0.000632394
26 *370:49 *594:12 0.00126522
27 *370:49 *594:117 0.00114976
28 *370:49 *603:10 0.00114971
29 *370:55 *9654:I 0.00306486
30 *370:55 *371:26 0.000409944
31 *370:55 *440:21 0.000257002
32 *370:55 *440:34 0.0018342
33 *370:55 *440:43 0.00412848
34 tl_o[4] *370:14 0.000112184
35 *9135:A2 *370:49 1.27834e-05
36 *9186:A1 *370:49 0.00276747
37 *9186:A1 *370:55 0.000634664
38 *9234:A1 *370:49 0.00011421
39 *9393:I0 *370:49 0.00075805
40 *9470:I *9655:I 0.000305529
41 *9659:I *9655:I 0.00388678
42 *9663:I *9655:I 6.33156e-05
43 *128:26 *9655:I 6.6582e-06
44 *128:26 *370:14 2.07819e-06
45 *245:14 *370:49 5.29249e-05
46 *253:12 *370:49 7.01058e-05
47 *258:18 *370:49 0.000271774
48 *258:20 *370:49 0.00159007
49 *258:29 *370:49 7.29199e-05
50 *258:29 *370:55 0.00282283
51 *258:40 *370:55 0.000271764
52 *365:30 *9655:I 0.00027749
53 *367:12 *9655:I 0.00010967
54 *368:37 *9655:I 0.00198824
55 *368:37 *370:55 0.000555629
56 *369:18 *370:14 0.000692979
*RES
1 *9228:Z *370:14 22.368 
2 *370:14 *9655:I 39.5657 
3 *370:14 *370:49 33.488 
4 *370:49 *370:55 47.32 
5 *370:55 *9656:I 9.728 
*END

*D_NET *371 0.0493405
*CONN
*I *9653:I I *D gf180mcu_fd_sc_mcu7t5v0__buf_4
*I *9654:I I *D gf180mcu_fd_sc_mcu7t5v0__buf_8
*I *9229:Z O *D gf180mcu_fd_sc_mcu7t5v0__and2_2
*CAP
1 *9653:I 0.000338322
2 *9654:I 0.00271039
3 *9229:Z 0.000311919
4 *371:26 0.00436894
5 *371:18 0.00476079
6 *371:14 0.00362475
7 *371:8 0.00117275
8 *9653:I *9342:A1 0.00148792
9 *9653:I *9632:D[7] 1.33022e-05
10 *9653:I *433:10 0.00148792
11 *9654:I *431:12 0
12 *9654:I *470:12 0
13 *371:8 *9272:A1 0.000260689
14 *371:8 *9272:A2 0.00039949
15 *371:8 *9632:D[7] 6.50218e-06
16 *371:8 *372:18 7.28333e-07
17 *371:14 *9225:A1 0.000438819
18 *371:14 *9556:I 0.000169123
19 *371:14 *396:18 0.000604086
20 *371:14 *423:8 0.000151355
21 *371:18 *9221:A2 0.00115766
22 *371:18 *9234:B 1.71809e-05
23 *371:18 *9236:A2 0.00116908
24 *371:18 *9253:A1 0.0015243
25 *371:18 *9269:A2 0.000308511
26 *371:18 *9556:I 0.000579742
27 *371:18 *375:74 0.00038918
28 *371:18 *375:92 1.0639e-05
29 *371:18 *380:35 0.00129271
30 *371:18 *380:43 0.000243457
31 *371:18 *396:18 0.00183873
32 *371:18 *473:24 2.84264e-05
33 *371:18 *530:22 0.000110729
34 *371:18 *594:12 0.000544563
35 *371:18 *594:117 0.000345331
36 *371:18 *613:22 0.000548941
37 *371:26 *9251:A1 1.9026e-05
38 *371:26 *9253:A1 0.000383898
39 *371:26 *9346:A2 0.00161694
40 *371:26 *9391:I1 0.000343529
41 *371:26 *9578:I 0
42 *371:26 *380:35 0.00131579
43 *371:26 *431:12 0.000131256
44 *371:26 *436:10 0.000278502
45 *371:26 *473:24 2.87344e-06
46 *9186:A2 *371:26 8.02744e-05
47 *9263:A3 *371:18 0.00102657
48 *9272:A3 *371:8 5.70487e-05
49 *9348:A1 *371:26 0.0015246
50 *9395:A2 *371:18 0.000571178
51 *9441:D *371:18 0.000868177
52 *9655:I *371:18 3.90227e-05
53 *9656:I *9654:I 4.47868e-05
54 *189:28 *9653:I 3.48515e-05
55 *189:28 *371:8 3.80269e-05
56 *258:20 *371:26 0.000685709
57 *258:29 *371:26 0.000234553
58 *258:40 *371:26 5.31759e-05
59 *328:12 *371:8 7.9669e-06
60 *365:30 *371:18 0.000307388
61 *368:37 *9654:I 0.00154803
62 *368:37 *371:18 0.00131277
63 *368:37 *371:26 0.000808523
64 *370:49 *371:18 0.000114217
65 *370:55 *9654:I 0.00306486
66 *370:55 *371:26 0.000409944
*RES
1 *9229:Z *371:8 7.204 
2 *371:8 *371:14 10.22 
3 *371:14 *371:18 44.096 
4 *371:18 *371:26 22.672 
5 *371:26 *9654:I 43.424 
6 *371:8 *9653:I 18.908 
*END

*D_NET *372 0.0713134
*CONN
*I *9652:I I *D gf180mcu_fd_sc_mcu7t5v0__buf_8
*I *9651:I I *D gf180mcu_fd_sc_mcu7t5v0__buf_8
*I *9230:Z O *D gf180mcu_fd_sc_mcu7t5v0__and2_2
*CAP
1 *9652:I 0
2 *9651:I 0.000380829
3 *9230:Z 0.000713533
4 *372:53 0.0032403
5 *372:28 0.00374714
6 *372:18 0.00732014
7 *372:18 *9230:A1 1.90343e-05
8 *372:18 *9230:A2 9.9336e-05
9 *372:18 *9280:A1 1.12609e-05
10 *372:18 *9405:CLK 0.000548432
11 *372:18 *9632:D[7] 0.000754311
12 *372:18 *396:18 0.000417554
13 *372:18 *594:26 0.000102011
14 *372:18 *594:32 4.15617e-05
15 *372:28 *9343:A2 0.000304632
16 *372:28 *9632:D[5] 0.000507249
17 *372:28 *375:74 0.000229987
18 *372:28 *424:29 0
19 *372:28 *463:8 0.00720438
20 *372:28 *469:8 0.0020318
21 *372:53 *9238:A2 0.000115855
22 *372:53 *433:10 0.000520108
23 *372:53 *439:16 0.00224486
24 *372:53 *594:117 0.000244036
25 *9186:A1 *372:53 0.000845089
26 *9272:A3 *372:18 5.65061e-06
27 *9272:A3 *372:28 0.00135377
28 *9332:A1 *372:28 0
29 *9333:I0 *372:18 0.000446099
30 *9344:A1 *372:28 0.000753106
31 *9395:B *372:18 0.000453302
32 *9442:D *372:53 0.000290871
33 *9447:D *372:53 0.000399331
34 *9471:I *372:53 0.00099931
35 *9655:I *372:53 0.00334153
36 *9661:I *372:28 0.000146882
37 *9663:I *372:53 0.0160507
38 *9664:I *372:53 0.0127183
39 *328:12 *372:18 0.000568029
40 *328:20 *372:18 0.000268615
41 *365:30 *372:28 0.00143311
42 *368:37 *372:53 0.000440675
43 *371:8 *372:18 7.28333e-07
*RES
1 *9230:Z *372:18 26.944 
2 *372:18 *372:28 46.072 
3 *372:28 *9651:I 11.184 
4 *372:18 *372:53 48.438 
5 *372:53 *9652:I 9 
*END

*D_NET *373 0.000945795
*CONN
*I *9456:I I *D gf180mcu_fd_sc_mcu7t5v0__clkbuf_16
*I *9463:Z O *D gf180mcu_fd_sc_mcu7t5v0__clkbuf_16
*CAP
1 *9456:I 0.00010354
2 *9463:Z 0.000116848
3 *373:11 0.000215256
4 *373:6 0.000228564
5 *9183:I0 *9456:I 8.14379e-05
6 *9183:I0 *373:6 8.14679e-05
7 *9183:I0 *373:11 0.000118681
*RES
1 *9463:Z *373:6 5.436 
2 *373:6 *373:11 1.18486 
3 *373:11 *9456:I 5.39514 
*END

*D_NET *374 0.0149346
*CONN
*I *9457:I I *D gf180mcu_fd_sc_mcu7t5v0__clkbuf_16
*I *9458:I I *D gf180mcu_fd_sc_mcu7t5v0__clkbuf_16
*I *9455:Z O *D gf180mcu_fd_sc_mcu7t5v0__clkbuf_16
*CAP
1 *9457:I 9.19358e-05
2 *9458:I 0
3 *9455:Z 0.000129393
4 *374:36 0.00231556
5 *374:20 0.000141647
6 *374:15 0.00236527
7 *374:11 0.00276326
8 *374:6 0.00289266
9 *9457:I *449:84 0.000124964
10 *374:6 *438:78 4.15446e-05
11 *374:11 *438:78 0.00109887
12 *374:36 *449:84 0.00296953
*RES
1 *9455:Z *374:6 5.42486 
2 *374:6 *374:11 22.3711 
3 *374:11 *374:15 4.5 
4 *374:15 *374:20 0.728 
5 *374:20 *9458:I 9 
6 *374:15 *374:36 25.924 
7 *374:36 *9457:I 5.436 
*END

*D_NET *375 0.0595863
*CONN
*I *9462:I I *D gf180mcu_fd_sc_mcu7t5v0__clkbuf_16
*I *9460:I I *D gf180mcu_fd_sc_mcu7t5v0__clkbuf_16
*I *9461:I I *D gf180mcu_fd_sc_mcu7t5v0__clkbuf_16
*I *9459:I I *D gf180mcu_fd_sc_mcu7t5v0__clkbuf_16
*I *9456:Z O *D gf180mcu_fd_sc_mcu7t5v0__clkbuf_16
*CAP
1 *9462:I 0
2 *9460:I 0
3 *9461:I 0
4 *9459:I 0
5 *9456:Z 0.000149747
6 *375:94 0.00136746
7 *375:92 0.00405912
8 *375:74 0.00265714
9 *375:72 0.0053488
10 *375:69 0.00478519
11 *375:36 0.00489328
12 *375:34 0.000108092
13 *375:30 0.00179704
14 *375:21 0.00194171
15 *375:19 0.000267853
16 *375:15 0.00201248
17 *375:6 0.00203904
18 *375:6 *438:74 0
19 *375:15 *438:74 0
20 *375:19 *438:74 0
21 *375:21 *438:74 0
22 *375:30 *438:74 0
23 *375:36 *449:84 0.000115371
24 *375:69 *9135:A1 1.33033e-05
25 *375:69 *9139:A1 0.000302046
26 *375:69 *9267:A3 1.16343e-05
27 *375:69 *9375:I1 5.07461e-05
28 *375:69 *9377:I0 1.53331e-05
29 *375:69 *9449:RN 0.000216454
30 *375:69 *9451:RN 0.000749249
31 *375:69 *449:84 0.00299875
32 *375:69 *506:20 0.000175114
33 *375:69 *506:33 0.000157278
34 *375:69 *595:29 0.000125933
35 *375:69 *614:10 4.5609e-05
36 *375:69 *614:23 0.00025426
37 *375:74 *9331:A1 1.60028e-05
38 *375:74 *9343:A2 0.000816854
39 *375:74 *9556:I 0.00136681
40 *375:74 *9632:D[5] 7.93873e-05
41 *375:74 *423:8 0.000509864
42 *375:74 *424:19 0
43 *375:74 *424:21 0
44 *375:74 *424:29 0
45 *375:74 *438:12 0.000221701
46 *375:74 *438:29 0.00305497
47 *375:74 *512:32 0.000636182
48 *375:92 *9214:A1 5.35362e-06
49 *375:92 *9236:A2 0.000135331
50 *375:92 *9252:A2 0.000136127
51 *375:92 *9282:A1 0.000696877
52 *375:92 *9282:A2 9.72104e-05
53 *375:92 *9283:A1 9.07598e-05
54 *375:92 *9382:S 0.000372266
55 *375:92 *9384:I0 9.12951e-05
56 *375:92 *9387:A1 1.57848e-05
57 *375:92 *9389:I0 4.78732e-05
58 *375:92 *9392:I0 1.40331e-05
59 *375:92 *473:24 0.00124601
60 *375:92 *594:129 1.23904e-05
61 *375:94 *9357:I1 1.38755e-05
62 *375:94 *9382:I0 0.000107043
63 *375:94 *9579:I 1.67036e-05
64 *375:94 *9599:I 3.51889e-05
65 *375:94 *484:22 8.39284e-05
66 *375:94 *543:16 0.000536042
67 *375:94 *594:161 0.000204638
68 *375:94 *610:14 5.29249e-05
69 tl_o[13] *375:94 0
70 tl_o[24] *375:92 6.61604e-06
71 tl_o[40] *375:94 0.000128746
72 tl_o[54] *375:69 9.51221e-05
73 tl_o[56] *375:94 0
74 tl_o[65] *375:92 0.0004657
75 *9138:A4 *375:92 0.000241749
76 *9248:A3 *375:92 0.000121643
77 *9250:A3 *375:92 4.01502e-05
78 *9250:B *375:74 0.00078273
79 *9250:B *375:92 0.00013467
80 *9254:A3 *375:69 1.0197e-05
81 *9262:B *375:69 8.94558e-05
82 *9264:A1 *375:69 4.4504e-06
83 *9265:A2 *375:69 7.67653e-06
84 *9265:A3 *375:69 0.000184188
85 *9267:A2 *375:69 7.23409e-05
86 *9312:A1 *375:69 0.000399736
87 *9312:A3 *375:69 3.62028e-05
88 *9344:A2 *375:74 0.000484574
89 *9375:S *375:69 9.56679e-05
90 *9377:S *375:69 0.000134458
91 *9388:A1 *375:92 0.000647835
92 *9395:A2 *375:74 0.001198
93 *9397:D *375:69 0.00028394
94 *9399:D *375:69 0.000414278
95 *9436:D *375:94 0.00111734
96 *9438:D *375:94 0.0014301
97 *9657:I *375:74 0.000857814
98 *9666:I *375:74 0.000155511
99 *9666:I *375:92 0.000245343
100 *248:29 *375:74 0.000894481
101 *248:29 *375:92 0.000149948
102 *256:12 *375:69 3.85773e-05
103 *327:13 *375:69 0.000172708
104 *329:12 *375:92 5.19122e-05
105 *329:26 *375:92 8.52513e-05
106 *365:30 *375:74 0.00030592
107 *371:18 *375:74 0.00038918
108 *371:18 *375:92 1.0639e-05
109 *372:28 *375:74 0.000229987
*RES
1 *9456:Z *375:6 5.436 
2 *375:6 *375:15 13.3083 
3 *375:15 *375:19 0.835714 
4 *375:19 *375:21 0.936 
5 *375:21 *375:30 15.94 
6 *375:30 *375:34 4.5 
7 *375:34 *375:36 0.936 
8 *375:36 *375:69 48.984 
9 *375:69 *375:72 4.5 
10 *375:72 *375:74 41.496 
11 *375:74 *9459:I 9 
12 *375:72 *375:92 33.544 
13 *375:92 *375:94 19.864 
14 *375:94 *9461:I 9 
15 *375:34 *9460:I 4.5 
16 *375:19 *9462:I 4.5 
*END

*D_NET *376 0.0558165
*CONN
*I *9634:CLK I *D gf180mcu_fd_ip_sram__sram256x8m8wm1
*I *9632:CLK I *D gf180mcu_fd_ip_sram__sram256x8m8wm1
*I *9457:Z O *D gf180mcu_fd_sc_mcu7t5v0__clkbuf_16
*CAP
1 *9634:CLK 0.00362303
2 *9632:CLK 0
3 *9457:Z 2.07117e-05
4 *376:22 0.00541359
5 *376:20 0.00544624
6 *376:18 0.00713675
7 *376:16 0.0107271
8 *376:14 0.0117142
9 *376:12 0.0117349
*RES
1 *9457:Z *376:12 18.1151 
2 *376:12 *376:14 49.3373 
3 *376:14 *376:16 4.5 
4 *376:16 *376:18 66.5711 
5 *376:18 *376:20 0.312 
6 *376:20 *376:22 50.336 
7 *376:22 *9632:CLK 9 
8 *376:16 *9634:CLK 39.9289 
*END

*D_NET *377 0.0520802
*CONN
*I *9635:CLK I *D gf180mcu_fd_ip_sram__sram256x8m8wm1
*I *9633:CLK I *D gf180mcu_fd_ip_sram__sram256x8m8wm1
*I *9458:Z O *D gf180mcu_fd_sc_mcu7t5v0__clkbuf_16
*CAP
1 *9635:CLK 5.45489e-05
2 *9633:CLK 5.45489e-05
3 *9458:Z 0.00963919
4 *377:34 0.00558672
5 *377:22 0.00802741
6 *377:20 0.0107596
7 *377:16 0.0179581
8 *377:16 *439:37 0
*RES
1 *9458:Z *377:16 48.0539 
2 *377:16 *377:20 25.3203 
3 *377:20 *377:22 74.048 
4 *377:22 *9633:CLK 9.468 
5 *377:16 *377:34 50.1837 
6 *377:34 *9635:CLK 9.468 
*END

*D_NET *378 0.0755767
*CONN
*I *9398:CLK I *D gf180mcu_fd_sc_mcu7t5v0__dffq_1
*I *9447:CLK I *D gf180mcu_fd_sc_mcu7t5v0__dffq_1
*I *9407:CLK I *D gf180mcu_fd_sc_mcu7t5v0__dffq_1
*I *9440:CLK I *D gf180mcu_fd_sc_mcu7t5v0__dffq_1
*I *9435:CLK I *D gf180mcu_fd_sc_mcu7t5v0__dffq_1
*I *9434:CLK I *D gf180mcu_fd_sc_mcu7t5v0__dffq_1
*I *9437:CLK I *D gf180mcu_fd_sc_mcu7t5v0__dffq_1
*I *9405:CLK I *D gf180mcu_fd_sc_mcu7t5v0__dffq_1
*I *9406:CLK I *D gf180mcu_fd_sc_mcu7t5v0__dffq_1
*I *9404:CLK I *D gf180mcu_fd_sc_mcu7t5v0__dffq_1
*I *9464:I I *D gf180mcu_fd_sc_mcu7t5v0__inv_4
*I *9403:CLK I *D gf180mcu_fd_sc_mcu7t5v0__dffq_1
*I *9401:CLK I *D gf180mcu_fd_sc_mcu7t5v0__dffq_1
*I *9402:CLK I *D gf180mcu_fd_sc_mcu7t5v0__dffq_1
*I *9400:CLK I *D gf180mcu_fd_sc_mcu7t5v0__dffq_1
*I *9459:Z O *D gf180mcu_fd_sc_mcu7t5v0__clkbuf_16
*CAP
1 *9398:CLK 0.000139657
2 *9447:CLK 0
3 *9407:CLK 0
4 *9440:CLK 0.000105625
5 *9435:CLK 0
6 *9434:CLK 0
7 *9437:CLK 0.000969714
8 *9405:CLK 6.04737e-05
9 *9406:CLK 0.000214727
10 *9404:CLK 0
11 *9464:I 0.000366863
12 *9403:CLK 0
13 *9401:CLK 0.000245099
14 *9402:CLK 0.0001984
15 *9400:CLK 0.000362158
16 *9459:Z 0.00174893
17 *378:176 0.00196176
18 *378:159 0.00256483
19 *378:146 0.00090749
20 *378:135 0.000329572
21 *378:110 0.00118893
22 *378:108 0.000735713
23 *378:102 0.000707718
24 *378:91 0.000263772
25 *378:80 0.00044842
26 *378:71 0.00114714
27 *378:14 0.000797104
28 *378:12 0.000751257
29 *378:10 0.00740853
30 *378:8 0.00753629
31 *9398:CLK *441:57 0
32 *9400:CLK *9315:A2 0.000256266
33 *9402:CLK *9319:A2 0.000205662
34 *9405:CLK *9632:D[7] 0.000548432
35 *9406:CLK *9335:A1 3.10673e-05
36 *9406:CLK *9335:A2 3.4596e-05
37 *9406:CLK *396:18 1.09161e-05
38 *9406:CLK *460:30 8.07445e-05
39 *9437:CLK *9593:I 0.000139532
40 *9440:CLK *9229:A2 0.000149923
41 *9440:CLK *460:14 0.000560747
42 *9464:I *9330:A1 1.00618e-05
43 *378:10 *424:29 0
44 *378:10 *424:31 0
45 *378:12 *424:31 0
46 *378:71 *9331:A1 7.05278e-05
47 *378:71 *424:19 8.77606e-06
48 *378:71 *424:21 6.23601e-05
49 *378:71 *424:29 0.00010735
50 *378:80 *9335:A1 3.646e-05
51 *378:80 *9343:A1 0.00114349
52 *378:80 *424:19 1.51772e-05
53 *378:91 *9343:A1 0.000788837
54 *378:91 *449:16 9.47125e-06
55 *378:102 *9343:A1 0.000188241
56 *378:102 *449:32 0.000122381
57 *378:108 *9229:A2 0.0021063
58 *378:108 *9337:I1 0.000214561
59 *378:108 *9549:I 7.51562e-05
60 *378:108 *9562:I 0.000158617
61 *378:108 *449:16 0
62 *378:110 *9229:A2 0.000310798
63 *378:110 *9337:I1 0.000574094
64 *378:110 *9381:I1 0.00017298
65 *378:110 *9593:I 0.000132685
66 *378:135 *449:32 2.83881e-05
67 *378:146 *449:32 5.32552e-05
68 *378:159 *9129:I 0.00171683
69 *378:159 *9240:A1 0.000173376
70 *378:159 *401:20 0.000136208
71 *378:159 *449:32 2.60017e-05
72 *378:159 *516:79 3.22108e-05
73 *378:159 *517:20 0.000266731
74 *378:159 *530:22 0.000113027
75 *378:176 *9291:A2 0.00548251
76 *378:176 *9342:A1 7.99569e-05
77 *378:176 *401:20 0.00470163
78 *378:176 *407:22 4.93913e-05
79 *378:176 *408:25 0.000437408
80 *378:176 *514:48 0.000961959
81 *378:176 *517:20 1.41436e-05
82 tl_o[51] *9437:CLK 0.000143028
83 *9317:I0 *9400:CLK 0.00184694
84 *9321:I0 *378:12 7.27874e-05
85 *9321:I0 *378:14 4.096e-05
86 *9325:I0 *9400:CLK 3.37332e-05
87 *9325:I0 *9401:CLK 2.76457e-05
88 *9325:I0 *9402:CLK 0
89 *9325:I0 *378:14 4.81903e-05
90 *9329:I0 *378:12 0.000408794
91 *9330:A3 *9464:I 0.000396403
92 *9332:A1 *9464:I 0.000119868
93 *9332:A1 *378:8 0.000134833
94 *9336:A1 *378:71 0.000832937
95 *9336:A1 *378:80 0.000895252
96 *9337:I0 *378:102 5.23324e-05
97 *9337:I0 *378:108 0
98 *9344:A1 *9406:CLK 1.91879e-05
99 *9344:A2 *9406:CLK 1.07369e-05
100 *9345:I0 *378:146 0.000493419
101 *9345:I0 *378:159 0.00221207
102 *9434:D *9437:CLK 0.00315374
103 *9435:D *378:110 4.1048e-06
104 *9440:D *378:146 0.000112844
105 *9440:D *378:159 0.000141331
106 *9472:I *378:159 0.0012171
107 *9535:I *9437:CLK 0.00040061
108 *9538:I *9437:CLK 8.80767e-05
109 *9632:WEN[7] *378:176 0.000254486
110 *3:50 *378:176 0.00339911
111 *198:12 *9400:CLK 5.25802e-05
112 *198:12 *378:14 5.12091e-05
113 *199:10 *9400:CLK 0.000111749
114 *200:10 *9402:CLK 0
115 *200:10 *378:12 0.00128579
116 *200:10 *378:14 0.000605853
117 *201:10 *378:71 0.000155833
118 *202:12 *9406:CLK 8.16884e-06
119 *202:12 *378:80 0.000234643
120 *202:12 *378:91 0.000134086
121 *204:8 *378:91 0.000412354
122 *204:8 *378:102 0.00111349
123 *204:8 *378:135 0.000235881
124 *204:8 *378:146 0.000298828
125 *328:20 *9406:CLK 7.87395e-06
126 *372:18 *9405:CLK 0.000548432
*RES
1 *9459:Z *378:8 11.808 
2 *378:8 *378:10 63.752 
3 *378:10 *378:12 4.68 
4 *378:12 *378:14 3.224 
5 *378:14 *9400:CLK 15.552 
6 *378:14 *9402:CLK 10.56 
7 *378:12 *9401:CLK 10.56 
8 *378:10 *9403:CLK 9 
9 *9459:Z *9464:I 11.808 
10 *9459:Z *378:71 18.36 
11 *378:71 *9404:CLK 9 
12 *378:71 *378:80 3.848 
13 *378:80 *9406:CLK 10.56 
14 *378:80 *378:91 2.184 
15 *378:91 *9405:CLK 10.56 
16 *378:91 *378:102 3.016 
17 *378:102 *378:108 10.74 
18 *378:108 *378:110 3.016 
19 *378:110 *9437:CLK 24.94 
20 *378:110 *9434:CLK 4.5 
21 *378:108 *9435:CLK 4.5 
22 *378:102 *378:135 0.728 
23 *378:135 *9440:CLK 10.56 
24 *378:135 *378:146 2.184 
25 *378:146 *9407:CLK 9 
26 *378:146 *378:159 16.356 
27 *378:159 *9447:CLK 4.5 
28 *378:159 *378:176 46.648 
29 *378:176 *9398:CLK 14.436 
*END

*D_NET *379 0.106276
*CONN
*I *9423:CLK I *D gf180mcu_fd_sc_mcu7t5v0__dffq_1
*I *9422:CLK I *D gf180mcu_fd_sc_mcu7t5v0__dffq_1
*I *9421:CLK I *D gf180mcu_fd_sc_mcu7t5v0__dffq_1
*I *9419:CLK I *D gf180mcu_fd_sc_mcu7t5v0__dffq_1
*I *9417:CLK I *D gf180mcu_fd_sc_mcu7t5v0__dffq_1
*I *9418:CLK I *D gf180mcu_fd_sc_mcu7t5v0__dffq_1
*I *9416:CLK I *D gf180mcu_fd_sc_mcu7t5v0__dffq_1
*I *9420:CLK I *D gf180mcu_fd_sc_mcu7t5v0__dffq_1
*I *9424:CLK I *D gf180mcu_fd_sc_mcu7t5v0__dffq_1
*I *9465:I I *D gf180mcu_fd_sc_mcu7t5v0__inv_8
*I *9460:Z O *D gf180mcu_fd_sc_mcu7t5v0__clkbuf_16
*CAP
1 *9423:CLK 0.000268942
2 *9422:CLK 0
3 *9421:CLK 0
4 *9419:CLK 0
5 *9417:CLK 0
6 *9418:CLK 0
7 *9416:CLK 0.000238911
8 *9420:CLK 6.58986e-05
9 *9424:CLK 0.00062488
10 *9465:I 0
11 *9460:Z 0.000160653
12 *379:79 0.000493527
13 *379:77 0.000363561
14 *379:73 0.000523542
15 *379:58 0.00162155
16 *379:52 0.00349721
17 *379:50 0.00314104
18 *379:46 0.00386753
19 *379:38 0.0121546
20 *379:36 0.0100661
21 *379:21 0.00525674
22 *379:6 0.00406737
23 *9423:CLK *413:14 2.38773e-05
24 *379:38 *453:14 0
25 *379:46 *9637:I 0.000476961
26 *379:46 *426:29 0
27 *379:50 *9172:A1 0
28 *379:50 *9172:A2 0
29 *379:50 *425:10 0.00195103
30 *379:50 *426:29 0.00252981
31 *379:52 *9168:A1 0.001107
32 *379:52 *413:28 0
33 *379:52 *425:10 0.0239716
34 *379:52 *425:18 5.469e-05
35 *379:52 *442:10 0.00289622
36 *379:58 *413:28 0
37 *379:73 *425:32 0.000623959
38 *379:73 *425:42 7.93047e-05
39 *379:73 *442:10 0.00131399
40 *379:73 *442:23 3.55894e-05
41 *379:73 *555:8 0.00307503
42 *379:77 *555:8 0.00101974
43 *9154:I0 *379:77 0.000534088
44 *9161:A2 *379:73 0.000554952
45 *9162:I0 *379:73 0.000198172
46 *9162:I0 *379:77 0.000669232
47 *9165:A2 *379:58 8.80995e-05
48 *9166:I0 *9420:CLK 2.04597e-06
49 *9166:I0 *379:58 6.8199e-07
50 *9166:I0 *379:73 0.00521781
51 *9170:I0 *379:52 0.000501134
52 *9170:I0 *379:58 0.00561131
53 *9418:D *379:79 0
54 *191:10 *379:6 8.75081e-05
55 *191:10 *379:21 0.00186983
56 *213:8 *9416:CLK 0.000228035
57 *213:8 *379:79 5.33617e-05
58 *214:10 *379:77 0.000355286
59 *216:10 *379:73 0.000474574
60 *217:14 *379:58 3.48001e-06
61 *218:10 *379:52 0.00425591
*RES
1 *9460:Z *379:6 5.852 
2 *379:6 *9465:I 4.5 
3 *379:6 *379:21 41.344 
4 *379:21 *9424:CLK 17.764 
5 *379:21 *379:36 5.096 
6 *379:36 *379:38 64.064 
7 *379:38 *379:46 33.128 
8 *379:46 *379:50 16.876 
9 *379:50 *379:52 68.536 
10 *379:52 *379:58 20.1 
11 *379:58 *9420:CLK 4.812 
12 *379:58 *379:73 27.9 
13 *379:73 *379:77 10.636 
14 *379:77 *379:79 1.56 
15 *379:79 *9416:CLK 6.788 
16 *379:79 *9418:CLK 4.5 
17 *379:77 *9417:CLK 4.5 
18 *379:73 *9419:CLK 9 
19 *379:52 *9421:CLK 9 
20 *379:50 *9422:CLK 9 
21 *379:46 *9423:CLK 6.06 
*END

*D_NET *380 0.0998479
*CONN
*I *9397:CLK I *D gf180mcu_fd_sc_mcu7t5v0__dffq_1
*I *9449:CLK I *D gf180mcu_fd_sc_mcu7t5v0__dffrnq_1
*I *9396:CLK I *D gf180mcu_fd_sc_mcu7t5v0__dffq_1
*I *9451:CLK I *D gf180mcu_fd_sc_mcu7t5v0__dffrnq_1
*I *9412:CLK I *D gf180mcu_fd_sc_mcu7t5v0__dffq_1
*I *9415:CLK I *D gf180mcu_fd_sc_mcu7t5v0__dffq_1
*I *9413:CLK I *D gf180mcu_fd_sc_mcu7t5v0__dffq_1
*I *9414:CLK I *D gf180mcu_fd_sc_mcu7t5v0__dffq_1
*I *9443:CLK I *D gf180mcu_fd_sc_mcu7t5v0__dffq_1
*I *9438:CLK I *D gf180mcu_fd_sc_mcu7t5v0__dffq_1
*I *9436:CLK I *D gf180mcu_fd_sc_mcu7t5v0__dffq_1
*I *9442:CLK I *D gf180mcu_fd_sc_mcu7t5v0__dffq_1
*I *9441:CLK I *D gf180mcu_fd_sc_mcu7t5v0__dffq_1
*I *9446:CLK I *D gf180mcu_fd_sc_mcu7t5v0__dffq_1
*I *9450:CLK I *D gf180mcu_fd_sc_mcu7t5v0__dffrnq_1
*I *9448:CLK I *D gf180mcu_fd_sc_mcu7t5v0__dffrnq_1
*I *9432:CLK I *D gf180mcu_fd_sc_mcu7t5v0__dffq_1
*I *9439:CLK I *D gf180mcu_fd_sc_mcu7t5v0__dffq_1
*I *9433:CLK I *D gf180mcu_fd_sc_mcu7t5v0__dffq_1
*I *9408:CLK I *D gf180mcu_fd_sc_mcu7t5v0__dffq_1
*I *9461:Z O *D gf180mcu_fd_sc_mcu7t5v0__clkbuf_16
*CAP
1 *9397:CLK 0.000566905
2 *9449:CLK 0.000250895
3 *9396:CLK 0
4 *9451:CLK 0
5 *9412:CLK 0
6 *9415:CLK 0.00042736
7 *9413:CLK 0
8 *9414:CLK 0.000237773
9 *9443:CLK 0.000144016
10 *9438:CLK 0.000811823
11 *9436:CLK 0.00105895
12 *9442:CLK 0.000288965
13 *9441:CLK 0
14 *9446:CLK 0
15 *9450:CLK 0.00147498
16 *9448:CLK 0
17 *9432:CLK 0
18 *9439:CLK 0.000729076
19 *9433:CLK 0
20 *9408:CLK 2.4064e-05
21 *9461:Z 0.000451235
22 *380:229 0.00116689
23 *380:220 0.000548268
24 *380:207 0.00138021
25 *380:175 0.0006361
26 *380:164 0.00087679
27 *380:160 0.00105808
28 *380:152 0.00640168
29 *380:136 0.000955839
30 *380:88 0.000399468
31 *380:63 0.00131398
32 *380:57 0.00140009
33 *380:47 0.00128533
34 *380:43 0.000800629
35 *380:35 0.000738001
36 *380:31 0.000950137
37 *380:29 0.001574
38 *380:25 0.000983572
39 *380:12 0.000957278
40 *380:8 0.00633062
41 *9397:CLK *449:84 2.94648e-05
42 *9397:CLK *648:14 0
43 *9408:CLK *9187:I1 0.000113027
44 *9408:CLK *9614:I 3.22108e-05
45 *9436:CLK *9579:I 0.000151465
46 *9436:CLK *9597:I 0.000183183
47 *9436:CLK *473:24 1.51046e-05
48 *9436:CLK *474:19 0.000824908
49 *9438:CLK *9283:A1 5.87155e-05
50 *9438:CLK *9578:I 0.00263227
51 *9438:CLK *472:6 0.00016585
52 *9438:CLK *472:36 0.00016723
53 *9439:CLK *9216:A1 0.000931756
54 *9439:CLK *9379:I1 0.00130762
55 *9442:CLK *9251:A2 0
56 *9442:CLK *9597:I 2.14739e-05
57 *9443:CLK *9283:A1 1.13283e-05
58 *9443:CLK *9578:I 0.000432655
59 *9443:CLK *9639:I 1.50592e-05
60 *9450:CLK *9134:A1 0.000460013
61 *9450:CLK *9236:A2 1.91996e-05
62 *9450:CLK *594:83 0.000156081
63 *380:8 *9284:A1 9.74174e-05
64 *380:8 *9353:S 3.4596e-05
65 *380:8 *448:12 0
66 *380:8 *448:20 3.71482e-05
67 *380:8 *448:38 0.000571507
68 *380:8 *448:49 0.000113016
69 *380:12 *9597:I 0.000355296
70 *380:25 *9187:I1 0.000434024
71 *380:25 *9353:S 9.82096e-05
72 *380:25 *9390:I1 0.000984953
73 *380:25 *9390:S 1.61126e-05
74 *380:25 *9614:I 0.000101618
75 *380:25 *9633:D[2] 1.78512e-05
76 *380:25 *418:6 1.26329e-05
77 *380:25 *448:49 0
78 *380:29 *9283:A1 0.00216377
79 *380:29 *9390:I1 0.00206518
80 *380:31 *9596:I 0.00075145
81 *380:31 *9597:I 0.00133262
82 *380:35 *439:16 0.000675403
83 *380:35 *613:22 0.000560708
84 *380:43 *9254:A2 0.000236426
85 *380:43 *473:24 0.000103788
86 *380:43 *594:117 6.76194e-05
87 *380:47 *9135:A1 0.000166666
88 *380:47 *9234:B 7.11788e-06
89 *380:47 *594:117 0.000116476
90 *380:57 *9130:I 4.01434e-05
91 *380:57 *9134:A2 0.000178346
92 *380:57 *9234:B 2.59877e-05
93 *380:57 *9236:A2 0.000840017
94 *380:57 *530:22 0.00083939
95 *380:88 *9134:A1 0.000547101
96 *380:152 *9285:A1 0.000526647
97 *380:152 *418:35 0
98 *380:152 *450:8 0.000101593
99 *380:152 *450:17 0.00142815
100 *380:207 *9128:I 0.000203364
101 *380:207 *438:56 5.63044e-06
102 *380:207 *594:83 3.4596e-05
103 *380:207 *648:34 0.000600115
104 *380:220 *9128:I 0.000155331
105 *380:220 *648:34 0.000182866
106 *380:229 *9128:I 0.000101277
107 *380:229 *648:34 0.00112993
108 tl_o[20] *380:57 7.78438e-05
109 tl_o[20] *380:63 0.000120822
110 tl_o[41] *380:8 0.00142064
111 tl_o[4] *9450:CLK 0.000112665
112 tl_o[4] *380:57 0.000501312
113 tl_o[4] *380:63 0.000799435
114 tl_o[4] *380:88 0.000191652
115 tl_o[54] *9439:CLK 0.000122656
116 tl_o[54] *380:63 5.38568e-05
117 tl_o[55] *9436:CLK 0.000156319
118 tl_o[57] *9439:CLK 0.000262946
119 tl_o[6] *9436:CLK 8.24971e-05
120 *9135:A2 *380:47 0.00163783
121 *9136:A1 *380:207 4.4504e-06
122 *9136:A2 *380:207 0.000141602
123 *9145:I0 *9415:CLK 0.000681288
124 *9145:I0 *380:175 0.000346494
125 *9187:I0 *380:25 0.000195836
126 *9234:A2 *9450:CLK 2.1435e-05
127 *9239:B2 *380:57 0.00027615
128 *9241:B1 *380:57 6.20162e-05
129 *9248:A3 *9438:CLK 2.25385e-05
130 *9255:A1 *9438:CLK 0
131 *9255:A2 *380:43 0
132 *9255:B *9436:CLK 0.000456316
133 *9255:B *380:31 0.000173376
134 *9263:A3 *380:43 0.000487059
135 *9265:A2 *380:47 0.00177503
136 *9265:A2 *380:57 0.000321529
137 *9268:I1 *380:229 0.000159563
138 *9270:A2 *9450:CLK 0.00017298
139 *9365:I0 *380:164 0.000522341
140 *9369:I0 *380:160 0.000221261
141 *9373:I0 *380:160 0
142 *9373:I0 *380:164 0
143 *9373:I0 *380:175 0
144 *9391:S *9442:CLK 3.4596e-05
145 *9391:S *380:31 0.00200757
146 *9393:I0 *380:43 0.0010697
147 *9397:D *9397:CLK 0
148 *9441:D *380:35 0.000501134
149 *9441:D *380:43 0.000367043
150 *9443:D *380:25 0.000799936
151 *9443:D *380:29 0.00052232
152 *9475:I *380:29 0.00027922
153 *9486:I *9436:CLK 3.73261e-05
154 *9487:I *9438:CLK 0.000229202
155 *9498:I *9436:CLK 3.36776e-05
156 *9501:I *380:8 0.000169099
157 *9520:I *9436:CLK 0.000271807
158 *9528:I *9436:CLK 5.63044e-06
159 *9533:I *380:63 0.00102558
160 *9543:I *9439:CLK 0.000114058
161 *9543:I *380:63 6.96556e-05
162 *9649:I *380:152 0.00147785
163 *128:26 *9450:CLK 6.00612e-05
164 *128:26 *380:207 9.9247e-06
165 *209:10 *380:164 0.00213783
166 *209:10 *380:175 0.000116476
167 *211:10 *9415:CLK 0
168 *211:10 *380:175 0
169 *248:8 *380:57 0.00180657
170 *248:23 *380:57 4.15898e-06
171 *248:29 *380:57 0.000182695
172 *249:12 *380:207 0
173 *253:12 *380:47 3.646e-05
174 *258:18 *380:43 4.29362e-05
175 *258:20 *380:35 0.00560656
176 *258:20 *380:43 0.00037585
177 *325:10 *380:43 0.000131632
178 *327:17 *9397:CLK 5.40435e-05
179 *327:17 *9449:CLK 9.74301e-05
180 *329:26 *380:12 0.00066881
181 *329:26 *380:25 5.80085e-05
182 *329:26 *380:152 0.000271764
183 *329:37 *380:152 0.000802901
184 *367:29 *380:47 0.000413306
185 *369:18 *380:57 0.00108927
186 *370:14 *380:57 0.0004162
187 *370:49 *380:47 2.19312e-06
188 *371:18 *380:35 0.00129271
189 *371:18 *380:43 0.000243457
190 *371:26 *380:35 0.00131579
*RES
1 *9461:Z *380:8 14.928 
2 *380:8 *380:12 6.268 
3 *380:12 *9408:CLK 4.812 
4 *380:12 *380:25 13.028 
5 *380:25 *380:29 11.676 
6 *380:29 *380:31 7.176 
7 *380:31 *380:35 18.956 
8 *380:35 *380:43 10.636 
9 *380:43 *380:47 12.092 
10 *380:47 *380:57 17.604 
11 *380:57 *380:63 11.364 
12 *380:63 *9433:CLK 9 
13 *380:63 *9439:CLK 16.8 
14 *380:57 *9432:CLK 4.5 
15 *380:47 *380:88 6.06 
16 *380:88 *9448:CLK 4.5 
17 *380:88 *9450:CLK 7.932 
18 *380:43 *9446:CLK 4.5 
19 *380:35 *9441:CLK 9 
20 *380:31 *9442:CLK 6.06 
21 *380:29 *9436:CLK 14.172 
22 *380:25 *380:136 4.5 
23 *380:136 *9438:CLK 13.548 
24 *380:136 *9443:CLK 5.852 
25 *380:8 *380:152 63.128 
26 *380:152 *380:160 9.18 
27 *380:160 *380:164 11.26 
28 *380:164 *9414:CLK 10.56 
29 *380:164 *380:175 3.224 
30 *380:175 *9413:CLK 9 
31 *380:175 *9415:CLK 14.928 
32 *380:160 *9412:CLK 4.5 
33 *9450:CLK *380:207 14.172 
34 *380:207 *9451:CLK 4.5 
35 *380:207 *380:220 2.496 
36 *380:220 *9396:CLK 4.5 
37 *380:220 *380:229 8.972 
38 *380:229 *9449:CLK 10.768 
39 *380:229 *9397:CLK 12.64 
*END

*D_NET *381 0.108839
*CONN
*I *9429:CLK I *D gf180mcu_fd_sc_mcu7t5v0__dffq_1
*I *9431:CLK I *D gf180mcu_fd_sc_mcu7t5v0__dffq_1
*I *9430:CLK I *D gf180mcu_fd_sc_mcu7t5v0__dffq_1
*I *9428:CLK I *D gf180mcu_fd_sc_mcu7t5v0__dffq_1
*I *9427:CLK I *D gf180mcu_fd_sc_mcu7t5v0__dffq_1
*I *9426:CLK I *D gf180mcu_fd_sc_mcu7t5v0__dffq_1
*I *9411:CLK I *D gf180mcu_fd_sc_mcu7t5v0__dffq_1
*I *9425:CLK I *D gf180mcu_fd_sc_mcu7t5v0__dffq_1
*I *9409:CLK I *D gf180mcu_fd_sc_mcu7t5v0__dffq_1
*I *9444:CLK I *D gf180mcu_fd_sc_mcu7t5v0__dffq_1
*I *9445:CLK I *D gf180mcu_fd_sc_mcu7t5v0__dffq_1
*I *9410:CLK I *D gf180mcu_fd_sc_mcu7t5v0__dffq_1
*I *9466:I I *D gf180mcu_fd_sc_mcu7t5v0__inv_4
*I *9399:CLK I *D gf180mcu_fd_sc_mcu7t5v0__dffq_1
*I *9462:Z O *D gf180mcu_fd_sc_mcu7t5v0__clkbuf_16
*CAP
1 *9429:CLK 0.000333964
2 *9431:CLK 0.00073124
3 *9430:CLK 0.000200993
4 *9428:CLK 0
5 *9427:CLK 0
6 *9426:CLK 0
7 *9411:CLK 0.000686318
8 *9425:CLK 0.000157346
9 *9409:CLK 0
10 *9444:CLK 0
11 *9445:CLK 0.000316325
12 *9410:CLK 0.000412106
13 *9466:I 0.000108979
14 *9399:CLK 0.00136885
15 *9462:Z 0.00462375
16 *381:156 0.0011256
17 *381:145 0.000365722
18 *381:136 0.0024522
19 *381:127 0.0029205
20 *381:118 0.00060166
21 *381:114 0.00974678
22 *381:112 0.0158061
23 *381:85 0.000157346
24 *381:83 0.00115571
25 *381:63 0.000800514
26 *381:61 0.00095358
27 *381:48 0.0141827
28 *381:46 0.0137706
29 *381:44 0.00923424
30 *9399:CLK *438:74 0.00156571
31 *9399:CLK *449:84 0.00927433
32 *9411:CLK *9284:A1 0
33 *9411:CLK *9347:A2 0
34 *9411:CLK *9351:A2 1.32185e-05
35 *9411:CLK *9355:A1 5.37658e-05
36 *9411:CLK *9355:A2 0.000121503
37 *9411:CLK *428:27 0.000410048
38 *9425:CLK *9633:D[1] 0.000550188
39 *9425:CLK *448:49 0.000185295
40 *9429:CLK *9205:A1 8.29965e-06
41 *9429:CLK *9209:A2 6.29451e-05
42 *9429:CLK *429:68 0.00019118
43 *9430:CLK *9201:A2 2.38773e-05
44 *9430:CLK *429:53 0.000105333
45 *9431:CLK *9209:A1 0
46 *9431:CLK *9209:A2 4.18042e-05
47 *9431:CLK *429:68 2.14739e-05
48 *9445:CLK *9578:I 0.000130838
49 *9445:CLK *9596:I 9.0311e-05
50 *9445:CLK *9639:I 0
51 *9466:I *414:10 0.000509988
52 *381:44 *431:24 1.79606e-05
53 *381:44 *439:35 0.000100826
54 *381:48 *9633:D[1] 0.000250674
55 *381:63 *9596:I 9.89981e-05
56 *381:63 *9639:I 0
57 *381:63 *448:49 0.000159292
58 *381:63 *448:61 0.000185764
59 *381:83 *448:49 0.000772207
60 *381:118 *9189:A2 0.0001154
61 *381:127 *9189:A2 0.00323387
62 *381:136 *415:12 0.00159334
63 *381:136 *415:23 0.000999283
64 *381:136 *429:14 0.000120132
65 *381:136 *429:40 0
66 *381:136 *429:53 0
67 *381:145 *429:53 0
68 *381:156 *429:53 0
69 *381:156 *429:68 0.000597045
70 *9187:I0 *9425:CLK 0
71 *9191:I0 *381:127 0.000950194
72 *9194:A1 *381:118 0
73 *9194:A1 *381:127 0
74 *9194:A2 *381:127 0.000665686
75 *9195:I0 *381:136 3.42024e-05
76 *9199:I0 *9429:CLK 0.000454126
77 *9199:I0 *381:136 0.000534088
78 *9199:I0 *381:145 0.000668179
79 *9199:I0 *381:156 0.000826405
80 *9202:A2 *9431:CLK 2.81522e-06
81 *9206:A2 *9429:CLK 3.4596e-05
82 *9210:A2 *9429:CLK 1.36398e-06
83 *9352:A1 *9411:CLK 0.000180263
84 *9352:A1 *381:83 1.27019e-05
85 *9352:A2 *9411:CLK 0
86 *9353:I0 *9411:CLK 0
87 *9356:A2 *9411:CLK 5.62982e-05
88 *9429:D *9431:CLK 0.000103788
89 *9445:D *9445:CLK 0
90 *208:10 *9411:CLK 1.09486e-05
91 *224:12 *381:127 0.000314548
92 *226:12 *9429:CLK 0.000137026
93 *226:12 *9431:CLK 3.42271e-05
*RES
1 *9462:Z *9399:CLK 33.96 
2 *9462:Z *9466:I 10.352 
3 *9462:Z *381:44 31.0589 
4 *381:44 *381:46 4.5 
5 *381:46 *381:48 58.2883 
6 *381:48 *9410:CLK 15.06 
7 *381:48 *381:61 4.5 
8 *381:61 *381:63 3.64 
9 *381:63 *9445:CLK 11.496 
10 *381:63 *9444:CLK 9 
11 *381:61 *381:83 5.096 
12 *381:83 *381:85 4.5 
13 *381:85 *9409:CLK 4.5 
14 *381:85 *9425:CLK 6.06 
15 *381:83 *9411:CLK 14.824 
16 *381:44 *381:112 30.3173 
17 *381:112 *381:114 90.4317 
18 *381:114 *381:118 4.812 
19 *381:118 *9426:CLK 9 
20 *381:118 *381:127 13.832 
21 *381:127 *9427:CLK 9 
22 *381:127 *381:136 27.352 
23 *381:136 *9428:CLK 9 
24 *381:136 *381:145 1.768 
25 *381:145 *9430:CLK 10.56 
26 *381:145 *381:156 2.184 
27 *381:156 *9431:CLK 13.784 
28 *381:156 *9429:CLK 11.912 
*END

*D_NET *382 0.0171631
*CONN
*I *9253:A1 I *D gf180mcu_fd_sc_mcu7t5v0__nor2_1
*I *9476:Z O *D gf180mcu_fd_sc_mcu7t5v0__dlyd_1
*CAP
1 *9253:A1 0.00212884
2 *9476:Z 0.00212884
3 *9253:A1 *9137:A1 0.000203739
4 *9253:A1 *9137:A2 0.000248464
5 *9253:A1 *9221:A2 0.00115563
6 *9253:A1 *9252:A1 0.000106647
7 *9253:A1 *9252:A2 0.000634459
8 *9253:A1 *9269:A2 0.000314618
9 *9253:A1 *9390:I1 3.8282e-05
10 *9253:A1 *9391:I1 0.00011923
11 *9253:A1 *431:22 0.000604385
12 *9253:A1 *460:150 0.000102349
13 *9253:A1 *473:24 0.00425887
14 *9253:A1 *474:44 0.000183852
15 *9253:A1 *484:22 0.000647929
16 *9253:A1 *602:12 4.18157e-05
17 tl_o[6] *9253:A1 0.000245715
18 *9138:A4 *9253:A1 0.000169324
19 *9255:B *9253:A1 0.000574446
20 *9391:S *9253:A1 3.37526e-05
21 *9446:D *9253:A1 2.14739e-05
22 *325:10 *9253:A1 0.00129224
23 *371:18 *9253:A1 0.0015243
24 *371:26 *9253:A1 0.000383898
*RES
1 *9476:Z *9253:A1 49.928 
*END

*D_NET *383 0.00486217
*CONN
*I *9384:I0 I *D gf180mcu_fd_sc_mcu7t5v0__mux2_2
*I *9477:Z O *D gf180mcu_fd_sc_mcu7t5v0__dlyd_1
*CAP
1 *9384:I0 0.000680302
2 *9477:Z 0.000680302
3 *9384:I0 *9214:A1 0.00046038
4 *9384:I0 *9385:I0 7.32949e-05
5 *9384:I0 *9387:A1 7.22679e-05
6 *9384:I0 *9573:I 0.000106889
7 *9384:I0 *421:41 0.000211436
8 *9384:I0 *514:14 0.000208711
9 *9384:I0 *594:129 0.000596407
10 *9384:I0 *594:135 0.000461585
11 *9248:A3 *9384:I0 4.58667e-05
12 *9540:I *9384:I0 0.000356674
13 *308:12 *9384:I0 0.000816754
14 *375:92 *9384:I0 9.12951e-05
*RES
1 *9477:Z *9384:I0 26.528 
*END

*D_NET *384 0.0573357
*CONN
*I *9566:I I *D gf180mcu_fd_sc_mcu7t5v0__dlyd_1
*I *9191:Z O *D gf180mcu_fd_sc_mcu7t5v0__mux2_2
*CAP
1 *9566:I 0.000456316
2 *9191:Z 0
3 *384:8 0.00240674
4 *384:6 0.00195042
5 *9566:I *9567:I 0.000103788
6 *9566:I *9570:I 0.000260037
7 *384:8 *9191:I1 0.00534102
8 *384:8 *385:8 0.0279922
9 *384:8 *387:12 0.0172263
10 *384:8 *415:12 1.28023e-05
11 *384:8 *415:23 2.13965e-05
12 *384:8 *446:40 0.000100567
13 *9195:I0 *384:8 0.00146411
*RES
1 *9191:Z *384:6 9 
2 *384:6 *384:8 84.968 
3 *384:8 *9566:I 12.64 
*END

*D_NET *385 0.0441034
*CONN
*I *9567:I I *D gf180mcu_fd_sc_mcu7t5v0__dlyd_1
*I *9195:Z O *D gf180mcu_fd_sc_mcu7t5v0__mux2_2
*CAP
1 *9567:I 0.000395308
2 *9195:Z 0
3 *385:8 0.00170215
4 *385:6 0.00130684
5 *385:8 *386:8 8.59785e-06
6 *385:8 *388:10 0.00313255
7 *385:8 *446:34 0.000732222
8 *385:8 *446:36 0.000311
9 *385:8 *446:40 0.00841878
10 *9566:I *9567:I 0.000103788
11 *384:8 *385:8 0.0279922
*RES
1 *9195:Z *385:6 9 
2 *385:6 *385:8 70.2 
3 *385:8 *9567:I 11.6 
*END

*D_NET *386 0.0228766
*CONN
*I *9568:I I *D gf180mcu_fd_sc_mcu7t5v0__dlyd_1
*I *9199:Z O *D gf180mcu_fd_sc_mcu7t5v0__mux2_2
*CAP
1 *9568:I 5.16421e-05
2 *9199:Z 0
3 *386:8 0.00286698
4 *386:6 0.00281533
5 *386:8 *388:10 0.0165768
6 *386:8 *415:47 0.000465991
7 *386:8 *446:34 3.61944e-05
8 *9207:I0 *386:8 5.50559e-05
9 *385:8 *386:8 8.59785e-06
*RES
1 *9199:Z *386:6 9 
2 *386:6 *386:8 46.28 
3 *386:8 *9568:I 9.312 
*END

*D_NET *387 0.0245694
*CONN
*I *9569:I I *D gf180mcu_fd_sc_mcu7t5v0__dlyd_1
*I *9203:Z O *D gf180mcu_fd_sc_mcu7t5v0__mux2_2
*CAP
1 *9569:I 0.000178185
2 *9203:Z 5.02745e-05
3 *387:12 0.00357248
4 *387:8 0.00344457
5 *387:8 *9211:S 9.76253e-05
6 *384:8 *387:12 0.0172263
*RES
1 *9203:Z *387:8 9.312 
2 *387:8 *387:12 49.532 
3 *387:12 *9569:I 5.644 
*END

*D_NET *388 0.0229489
*CONN
*I *9570:I I *D gf180mcu_fd_sc_mcu7t5v0__dlyd_1
*I *9207:Z O *D gf180mcu_fd_sc_mcu7t5v0__mux2_2
*CAP
1 *9570:I 7.76096e-05
2 *9207:Z 6.38232e-05
3 *388:10 0.00141767
4 *388:8 0.00140388
5 *388:8 *9207:I1 1.65112e-05
6 *9566:I *9570:I 0.000260037
7 *385:8 *388:10 0.00313255
8 *386:8 *388:10 0.0165768
*RES
1 *9207:Z *388:8 9.312 
2 *388:8 *388:10 45.864 
3 *388:10 *9570:I 9.728 
*END

*D_NET *389 0.010545
*CONN
*I *9571:I I *D gf180mcu_fd_sc_mcu7t5v0__dlyd_1
*I *9211:Z O *D gf180mcu_fd_sc_mcu7t5v0__mux2_2
*CAP
1 *9571:I 0.000165041
2 *9211:Z 0
3 *389:8 0.00527249
4 *389:6 0.00510745
*RES
1 *9211:Z *389:6 9 
2 *389:6 *389:8 45.656 
3 *389:8 *9571:I 9.936 
*END

*D_NET *390 0.00361009
*CONN
*I *9572:I I *D gf180mcu_fd_sc_mcu7t5v0__dlyd_1
*I *9215:Z O *D gf180mcu_fd_sc_mcu7t5v0__and2_1
*CAP
1 *9572:I 0.000215595
2 *9215:Z 0.000215595
3 *9572:I *9247:A1 0.000507634
4 *9572:I *9247:A2 3.646e-05
5 *9572:I *613:22 0.000294959
6 tl_o[53] *9572:I 0.00143057
7 *9255:A2 *9572:I 6.9464e-06
8 *9263:A2 *9572:I 8.11549e-05
9 *308:12 *9572:I 0.000821169
*RES
1 *9215:Z *9572:I 22.784 
*END

*D_NET *391 0.012367
*CONN
*I *9573:I I *D gf180mcu_fd_sc_mcu7t5v0__dlyd_1
*I *9216:Z O *D gf180mcu_fd_sc_mcu7t5v0__and2_1
*CAP
1 *9573:I 0.00112983
2 *9216:Z 0.00112983
3 *9573:I *9138:A3 0.00101322
4 *9573:I *9221:A1 5.17416e-05
5 *9573:I *9385:I1 0.000235068
6 *9573:I *9389:I1 0.000458558
7 *9573:I *9392:I1 9.15718e-05
8 *9573:I *399:18 0.00164156
9 *9573:I *506:20 0.0017305
10 *9573:I *594:129 0.00057105
11 *9573:I *594:135 0.00226934
12 *9573:I *602:12 2.46957e-05
13 *9573:I *613:22 0.000743981
14 tl_o[58] *9573:I 0.000842413
15 *9384:I0 *9573:I 0.000106889
16 *9473:I *9573:I 8.5657e-05
17 *9520:I *9573:I 5.21725e-05
18 *308:12 *9573:I 0.000188878
*RES
1 *9216:Z *9573:I 36.824 
*END

*D_NET *392 0.00709375
*CONN
*I *9574:I I *D gf180mcu_fd_sc_mcu7t5v0__dlyd_1
*I *9217:Z O *D gf180mcu_fd_sc_mcu7t5v0__and2_1
*CAP
1 *9574:I 0.00130152
2 *9217:Z 0.00130152
3 *9574:I *9217:A2 1.48679e-05
4 *9574:I *9220:A1 0.000150407
5 *9574:I *9280:A1 0.000262998
6 *9574:I *9583:I 0.000397567
7 *9574:I *9594:I 0.000397567
8 *9574:I *408:51 8.94067e-05
9 *9574:I *411:12 0
10 *9574:I *438:12 0
11 *9574:I *444:18 8.56087e-05
12 *9574:I *594:38 1.16992e-05
13 *9574:I *606:8 0.00102863
14 *9574:I *607:10 0.00094185
15 *9341:I0 *9574:I 0.000536943
16 *295:12 *9574:I 0.000573157
*RES
1 *9217:Z *9574:I 31.624 
*END

*D_NET *393 0.0174341
*CONN
*I *9575:I I *D gf180mcu_fd_sc_mcu7t5v0__dlyd_1
*I *9218:Z O *D gf180mcu_fd_sc_mcu7t5v0__and2_1
*CAP
1 *9575:I 0
2 *9218:Z 8.0685e-05
3 *393:14 0.00491617
4 *393:8 0.00499686
5 *393:8 *9218:A2 7.16355e-05
6 *393:8 *449:16 0.000134833
7 *393:14 *9218:A1 0.000159715
8 *393:14 *9258:A1 4.58681e-05
9 *393:14 *9378:I1 0
10 *393:14 *9381:I1 0.000250231
11 *393:14 *9468:I 0.000411433
12 *393:14 *9594:I 0.00022148
13 *393:14 *9640:I 0.00250554
14 *393:14 *408:14 0.000156364
15 *393:14 *408:51 0
16 *393:14 *411:12 0.000446622
17 *393:14 *412:31 0.000532558
18 *393:14 *420:14 0
19 *393:14 *444:18 0
20 *393:14 *444:31 6.90343e-05
21 *393:14 *513:20 0.000739969
22 *393:14 *543:16 2.39656e-05
23 tl_o[23] *393:14 5.21131e-05
24 tl_o[56] *393:14 6.40114e-06
25 tl_o[64] *393:14 0.00051485
26 *9434:D *393:14 0.000288769
27 *9480:I *393:14 6.3415e-05
28 *9526:I *393:14 0.000103624
29 *9539:I *393:14 0.000641988
*RES
1 *9218:Z *393:8 9.936 
2 *393:8 *393:14 49.844 
3 *393:14 *9575:I 4.5 
*END

*D_NET *394 0.00969754
*CONN
*I *9385:I0 I *D gf180mcu_fd_sc_mcu7t5v0__mux2_2
*I *9478:Z O *D gf180mcu_fd_sc_mcu7t5v0__dlyd_1
*CAP
1 *9385:I0 0.0010051
2 *9478:Z 0.0010051
3 *9385:I0 *9283:A1 0.00135741
4 *9385:I0 *9382:I0 0.00155463
5 *9385:I0 *9385:S 0.00092759
6 *9385:I0 *9639:I 0.0016845
7 *9385:I0 *421:13 0.000113016
8 *9385:I0 *421:41 0.000674119
9 *9385:I0 *594:129 6.17392e-05
10 tl_o[25] *9385:I0 0.000671251
11 tl_o[58] *9385:I0 0.000217811
12 tl_o[65] *9385:I0 0.00013549
13 *9384:I0 *9385:I0 7.32949e-05
14 *308:12 *9385:I0 0.000216479
*RES
1 *9478:Z *9385:I0 32.872 
*END

*D_NET *395 0.00875788
*CONN
*I *9576:I I *D gf180mcu_fd_sc_mcu7t5v0__dlyd_1
*I *9219:Z O *D gf180mcu_fd_sc_mcu7t5v0__and2_1
*CAP
1 *9576:I 0.00107159
2 *9219:Z 0.00107159
3 *9576:I *9581:I 0.000899647
4 *9576:I *412:64 0.00215668
5 *9576:I *484:22 9.76253e-05
6 *9576:I *512:16 0.000104974
7 *9255:A1 *9576:I 0.00227924
8 *9488:I *9576:I 0.000449906
9 *9520:I *9576:I 0.000102761
10 *9528:I *9576:I 0.00052387
*RES
1 *9219:Z *9576:I 32.768 
*END

*D_NET *396 0.0202888
*CONN
*I *9577:I I *D gf180mcu_fd_sc_mcu7t5v0__dlyd_1
*I *9220:Z O *D gf180mcu_fd_sc_mcu7t5v0__and2_1
*CAP
1 *9577:I 0
2 *9220:Z 0.0020862
3 *396:18 0.0020862
4 *396:18 *9225:A1 0.000438819
5 *396:18 *9234:B 0.00263857
6 *396:18 *9280:A1 2.14569e-05
7 *396:18 *9342:A2 0.00218464
8 *396:18 *9394:A1 0.000547779
9 *396:18 *9394:A2 0.000396414
10 *396:18 *9559:I 0.000417612
11 *396:18 *422:85 0.00085643
12 *396:18 *423:8 7.5904e-06
13 *396:18 *432:17 0.00358206
14 *396:18 *463:8 0.000392212
15 *396:18 *594:32 0.000336079
16 *9272:A3 *396:18 6.96644e-06
17 *9344:A1 *396:18 0.000165398
18 *9395:B *396:18 2.13874e-05
19 *9405:D *396:18 0.000125251
20 *9406:CLK *396:18 1.09161e-05
21 *9470:I *396:18 8.82089e-05
22 *9655:I *396:18 0.000783864
23 *202:12 *396:18 0.000109435
24 *328:20 *396:18 0.000124964
25 *371:14 *396:18 0.000604086
26 *371:18 *396:18 0.00183873
27 *372:18 *396:18 0.000417554
*RES
1 *9220:Z *396:18 48.964 
2 *396:18 *9577:I 4.5 
*END

*D_NET *397 0.0172704
*CONN
*I *9578:I I *D gf180mcu_fd_sc_mcu7t5v0__dlyd_1
*I *9221:Z O *D gf180mcu_fd_sc_mcu7t5v0__and2_1
*CAP
1 *9578:I 0.00211504
2 *9221:Z 0.00211504
3 *9578:I *9251:A1 4.74266e-06
4 *9578:I *9252:A1 0.00318166
5 *9578:I *9596:I 0
6 *9578:I *448:61 7.80485e-05
7 *9578:I *473:24 7.09329e-05
8 tl_o[25] *9578:I 0.000666463
9 *9348:A1 *9578:I 0
10 *9438:CLK *9578:I 0.00263227
11 *9442:D *9578:I 0.000674405
12 *9443:D *9578:I 2.57905e-05
13 *9443:CLK *9578:I 0.000432655
14 *9445:D *9578:I 0
15 *9445:CLK *9578:I 0.000130838
16 *9473:I *9578:I 0.00412909
17 *9487:I *9578:I 0.000406961
18 *9509:I *9578:I 0.000234968
19 *9666:I *9578:I 0.000286192
20 *4:25 *9578:I 8.53348e-05
21 *371:26 *9578:I 0
*RES
1 *9221:Z *9578:I 46.392 
*END

*D_NET *398 0.0075845
*CONN
*I *9579:I I *D gf180mcu_fd_sc_mcu7t5v0__dlyd_1
*I *9222:Z O *D gf180mcu_fd_sc_mcu7t5v0__and2_1
*CAP
1 *9579:I 0.00061698
2 *9222:Z 0.00061698
3 *9579:I *9214:A1 1.03283e-05
4 *9579:I *9222:A2 1.65142e-05
5 *9579:I *484:22 0.00123107
6 *9579:I *543:16 0.00365043
7 *9436:D *9579:I 0.000863273
8 *9436:CLK *9579:I 0.000151465
9 *9498:I *9579:I 0.000410754
10 *375:94 *9579:I 1.67036e-05
*RES
1 *9222:Z *9579:I 29.96 
*END

*D_NET *399 0.0163367
*CONN
*I *9580:I I *D gf180mcu_fd_sc_mcu7t5v0__dlyd_1
*I *9213:Z O *D gf180mcu_fd_sc_mcu7t5v0__and2_1
*CAP
1 *9580:I 1.31321e-05
2 *9213:Z 0.00290102
3 *399:18 0.00291415
4 *9580:I *471:10 0.000103788
5 *399:18 *9231:A1 7.22138e-05
6 *399:18 *9231:A2 0.000122054
7 *399:18 *9246:A2 0.00236992
8 *399:18 *9387:A2 0.000251178
9 *399:18 *9633:D[0] 2.50996e-05
10 *399:18 *421:79 0.000269765
11 *399:18 *449:59 0.000253847
12 *399:18 *460:160 0
13 *399:18 *471:10 2.88268e-06
14 *399:18 *512:94 8.60322e-06
15 *399:18 *595:29 0.000342864
16 *399:18 *595:31 2.46957e-05
17 *399:18 *595:33 0.000128787
18 *399:18 *603:10 3.47787e-05
19 *399:18 *686:21 0
20 tl_o[50] *399:18 4.82603e-06
21 tl_o[53] *9580:I 0.000113027
22 tl_o[53] *399:18 0.000394708
23 tl_o[58] *399:18 0.000364151
24 *9138:A1 *399:18 0.00187176
25 *9234:A2 *399:18 0.000140873
26 *9255:A2 *399:18 5.82251e-05
27 *9265:A3 *399:18 0
28 *9270:B *399:18 4.68497e-05
29 *9311:A1 *399:18 3.25206e-05
30 *9573:I *399:18 0.00164156
31 *128:26 *399:18 0.000110983
32 *190:10 *399:18 0.000109941
33 *253:25 *399:18 0.000972013
34 *296:14 *399:18 0.000564084
35 *308:12 *399:18 7.2385e-05
36 *325:10 *399:18 0
37 *325:12 *399:18 0
*RES
1 *9213:Z *399:18 47.952 
2 *399:18 *9580:I 9.312 
*END

*D_NET *400 0.0115255
*CONN
*I *9581:I I *D gf180mcu_fd_sc_mcu7t5v0__dlyd_1
*I *9214:Z O *D gf180mcu_fd_sc_mcu7t5v0__and2_1
*CAP
1 *9581:I 0.00134604
2 *9214:Z 0.00134604
3 *9581:I *9219:A2 0.000461647
4 *9581:I *9283:A1 0.00237158
5 *9581:I *9639:I 0.00226544
6 *9581:I *512:16 0.000104974
7 *9581:I *514:14 2.64063e-05
8 *9581:I *543:16 9.76261e-05
9 *9581:I *608:10 0.000259996
10 *9581:I *613:22 4.58147e-05
11 tl_o[13] *9581:I 3.646e-05
12 tl_o[53] *9581:I 0.000158673
13 tl_o[58] *9581:I 0.000256322
14 *9488:I *9581:I 1.12609e-05
15 *9499:I *9581:I 0.00143432
16 *9520:I *9581:I 0.000403233
17 *9576:I *9581:I 0.000899647
*RES
1 *9214:Z *9581:I 45.512 
*END

*D_NET *401 0.0181305
*CONN
*I *9582:I I *D gf180mcu_fd_sc_mcu7t5v0__dlyd_1
*I *9453:Z O *D gf180mcu_fd_sc_mcu7t5v0__buf_1
*CAP
1 *9582:I 0
2 *9453:Z 0.00274645
3 *401:20 0.00274645
4 *401:20 *9213:A1 4.97341e-06
5 *401:20 *9232:A2 0.000369445
6 *401:20 *9233:A2 0.000329068
7 *401:20 *9374:I1 4.1608e-05
8 *401:20 *9453:I 0.000149817
9 *401:20 *9556:I 0.000143981
10 *401:20 *9612:I 9.76253e-05
11 *401:20 *9632:D[7] 7.45759e-05
12 *401:20 *407:22 0.0039734
13 *401:20 *408:25 0.000641592
14 *401:20 *426:12 0
15 *401:20 *514:69 3.4596e-05
16 *401:20 *516:10 0
17 *401:20 *517:20 0.000222437
18 *401:20 *530:22 6.64873e-05
19 tl_o[8] *401:20 4.49295e-05
20 *9472:I *401:20 0.000425092
21 *9632:WEN[7] *401:20 0.000182219
22 *295:12 *401:20 0.000627628
23 *296:14 *401:20 9.76253e-05
24 *332:14 *401:20 0.000272618
25 *378:159 *401:20 0.000136208
26 *378:176 *401:20 0.00470163
*RES
1 *9453:Z *401:20 46.364 
2 *401:20 *9582:I 4.5 
*END

*D_NET *402 0.0157463
*CONN
*I *9583:I I *D gf180mcu_fd_sc_mcu7t5v0__dlyd_1
*I *9311:Z O *D gf180mcu_fd_sc_mcu7t5v0__or2_1
*CAP
1 *9583:I 0.000743984
2 *9311:Z 0.00208488
3 *402:18 0.00282887
4 *9583:I *9225:A2 0.0011484
5 *9583:I *9381:I0 0.00035701
6 *9583:I *9594:I 0.00113377
7 *402:18 *9213:A1 0.00109367
8 *402:18 *9225:A1 0.000837813
9 *402:18 *9271:A2 0.000259996
10 *402:18 *9272:A1 0
11 *402:18 *438:29 8.64348e-05
12 *402:18 *514:48 0.000262946
13 *9238:A1 *402:18 6.75152e-06
14 *9440:D *9583:I 6.83697e-05
15 *9574:I *9583:I 0.000397567
16 *9632:WEN[7] *402:18 0.000273993
17 *9657:I *402:18 0.000111066
18 *3:50 *402:18 9.09864e-05
19 *189:28 *402:18 9.70227e-05
20 *300:24 *9583:I 0.000176038
21 *304:18 *402:18 6.87243e-05
22 *332:14 *402:18 0.00308643
23 *367:6 *402:18 9.7618e-05
24 *367:27 *402:18 0.000433973
*RES
1 *9311:Z *402:18 46.496 
2 *402:18 *9583:I 17.632 
*END

*D_NET *403 0.0051714
*CONN
*I *9584:I I *D gf180mcu_fd_sc_mcu7t5v0__dlyd_1
*I *9454:Z O *D gf180mcu_fd_sc_mcu7t5v0__buf_1
*CAP
1 *9584:I 0.000539652
2 *9454:Z 0.000539652
3 *9584:I *9252:A2 0.000107648
4 *9584:I *9389:S 0.000718923
5 *9584:I *9597:I 0.000113027
6 *9584:I *602:12 0.00117674
7 *9473:I *9584:I 0.0019678
8 *255:14 *9584:I 7.95235e-06
*RES
1 *9454:Z *9584:I 37.868 
*END

*D_NET *404 0.0254723
*CONN
*I *9639:I I *D gf180mcu_fd_sc_mcu7t5v0__buf_3
*I *9468:I I *D gf180mcu_fd_sc_mcu7t5v0__dlyd_1
*I *9136:ZN O *D gf180mcu_fd_sc_mcu7t5v0__nand2_1
*CAP
1 *9639:I 0.002933
2 *9468:I 0.000686472
3 *9136:ZN 0.00199942
4 *404:14 0.0056189
5 *9468:I *9223:A1 5.34291e-06
6 *9468:I *9378:S 0.000406156
7 *9468:I *9379:S 0.00113642
8 *9468:I *420:14 0.000104022
9 *9639:I *9223:A1 0.000102664
10 *9639:I *9283:A1 0.00192805
11 *9639:I *9347:A1 3.45692e-05
12 *9639:I *460:129 0.000126795
13 *9639:I *460:150 0.000224975
14 *9639:I *594:129 6.28659e-05
15 *404:14 *9223:A1 0.000152019
16 *404:14 *9223:A2 5.77431e-06
17 *404:14 *9234:B 1.6659e-05
18 *404:14 *9448:D 0
19 *404:14 *9450:D 0
20 *404:14 *460:129 4.0819e-05
21 *404:14 *594:8 1.29324e-05
22 *404:14 *594:26 0
23 tl_o[26] *9468:I 0.000493709
24 tl_o[49] *9639:I 1.73667e-05
25 tl_o[50] *9639:I 0.000116063
26 tl_o[54] *9468:I 2.13169e-05
27 tl_o[54] *404:14 0
28 tl_o[58] *9639:I 2.50554e-05
29 tl_o[65] *9639:I 0.000209474
30 *9136:A2 *404:14 2.14894e-05
31 *9212:A1 *404:14 3.35429e-05
32 *9212:B *404:14 3.22108e-05
33 *9234:A2 *404:14 0
34 *9263:A2 *9639:I 1.7892e-06
35 *9270:B *404:14 4.49718e-05
36 *9283:A2 *9639:I 0.000568841
37 *9385:I0 *9639:I 0.0016845
38 *9388:B *9639:I 0.000437785
39 *9391:S *9639:I 0.000429338
40 *9443:D *9639:I 6.99894e-05
41 *9443:CLK *9639:I 1.50592e-05
42 *9445:D *9639:I 0.00020015
43 *9445:CLK *9639:I 0
44 *9474:I *9639:I 2.19471e-05
45 *9477:I *9639:I 0.000259344
46 *9479:I *9468:I 0.000169324
47 *9479:I *9639:I 2.46957e-05
48 *9479:I *404:14 0.000170759
49 *9481:I *404:14 3.76996e-05
50 *9545:I *404:14 0.000114782
51 *9581:I *9639:I 0.00226544
52 *245:14 *404:14 1.78817e-06
53 *256:12 *404:14 0
54 *257:18 *404:14 0.00162224
55 *295:20 *9639:I 8.41109e-05
56 *295:24 *9639:I 0.0002682
57 *381:63 *9639:I 0
58 *393:14 *9468:I 0.000411433
*RES
1 *9136:ZN *404:14 23.56 
2 *404:14 *9468:I 25.904 
3 *404:14 *9639:I 41.032 
*END

*D_NET *405 0.0276524
*CONN
*I *9260:A2 I *D gf180mcu_fd_sc_mcu7t5v0__oai21_1
*I *9257:A2 I *D gf180mcu_fd_sc_mcu7t5v0__oai32_1
*I *9240:A2 I *D gf180mcu_fd_sc_mcu7t5v0__nand2_1
*I *9238:A2 I *D gf180mcu_fd_sc_mcu7t5v0__nand2_1
*I *9386:I0 I *D gf180mcu_fd_sc_mcu7t5v0__mux2_2
*I *9258:B1 I *D gf180mcu_fd_sc_mcu7t5v0__aoi22_1
*I *9479:Z O *D gf180mcu_fd_sc_mcu7t5v0__dlyd_1
*CAP
1 *9260:A2 0.00115246
2 *9257:A2 5.62608e-05
3 *9240:A2 3.6366e-05
4 *9238:A2 0.000380353
5 *9386:I0 0
6 *9258:B1 0.000925161
7 *9479:Z 1.05059e-05
8 *405:38 0.000651749
9 *405:31 0.00154006
10 *405:25 0.00149298
11 *405:23 0.00133657
12 *405:6 0.000988092
13 *9238:A2 *9213:A1 0.0014457
14 *9238:A2 *9240:A1 4.18042e-05
15 *9238:A2 *9342:A1 0.00198264
16 *9238:A2 *433:10 0.00200372
17 *9257:A2 *9261:A1 0.000158666
18 *9257:A2 *513:20 0.000111369
19 *9260:A2 *9228:A1 2.90512e-05
20 *9260:A2 *9228:A2 0.00124705
21 *9260:A2 *9241:A1 2.80315e-05
22 *9260:A2 *9260:A1 2.64063e-05
23 *9260:A2 *9260:B 0.00046572
24 *9260:A2 *9612:I 0.000266558
25 *9260:A2 *513:24 0.000459506
26 *9260:A2 *530:22 8.16884e-06
27 *405:23 *594:26 3.80112e-05
28 *405:25 *9257:B2 9.76261e-05
29 *405:25 *9261:A1 0.000329068
30 *405:25 *594:26 5.24257e-05
31 *405:31 *9230:A2 0.000108337
32 *405:31 *9232:A2 4.56444e-06
33 *405:31 *9257:B2 7.4087e-05
34 *405:31 *9381:I0 3.07277e-05
35 *405:31 *9386:S 3.63581e-05
36 *405:31 *516:14 0.00144937
37 *405:31 *516:40 7.3514e-05
38 *405:31 *594:26 0.000360081
39 *405:38 *9213:A1 0.000122244
40 *405:38 *9240:A1 1.71326e-05
41 *405:38 *9381:I0 4.5488e-05
42 *405:38 *9386:I1 1.33181e-05
43 tl_o[20] *9258:B1 0.00191376
44 tl_o[20] *9260:A2 3.50983e-05
45 tl_o[20] *405:6 0.000106926
46 tl_o[22] *405:31 0.000106926
47 *9241:B2 *9238:A2 8.41845e-05
48 *9241:B2 *405:38 4.49307e-05
49 *9245:A1 *9260:A2 3.64211e-05
50 *9245:A2 *9260:A2 0.000245717
51 *9257:B1 *9260:A2 6.96675e-05
52 *9395:B *405:31 0.00122512
53 *9470:I *9238:A2 0.000843474
54 *9470:I *9260:A2 0.000312375
55 *9480:I *9258:B1 6.84196e-06
56 *9525:I *405:25 0.000212638
57 *9525:I *405:31 0.000538382
58 *9529:I *9258:B1 0.000153083
59 *9529:I *9260:A2 0.000716307
60 *3:36 *9258:B1 0.000484764
61 *3:50 *9260:A2 0.000203893
62 *248:8 *9260:A2 0
63 *295:20 *405:23 2.20381e-05
64 *295:20 *405:25 1.99013e-05
65 *367:29 *9260:A2 0.00045684
66 *372:53 *9238:A2 0.000115855
*RES
1 *9479:Z *405:6 4.812 
2 *405:6 *9258:B1 14.9 
3 *405:6 *405:23 5.02 
4 *405:23 *405:25 1.768 
5 *405:25 *405:31 20.1 
6 *405:31 *9386:I0 4.5 
7 *405:31 *405:38 1.768 
8 *405:38 *9238:A2 23.068 
9 *405:38 *9240:A2 4.812 
10 *405:25 *9257:A2 9.52 
11 *405:23 *9260:A2 30.064 
*END

*D_NET *406 0.0534804
*CONN
*I *9634:GWEN I *D gf180mcu_fd_ip_sram__sram256x8m8wm1
*I *9632:GWEN I *D gf180mcu_fd_ip_sram__sram256x8m8wm1
*I *9546:Z O *D gf180mcu_fd_sc_mcu7t5v0__buf_12
*CAP
1 *9634:GWEN 0
2 *9632:GWEN 6.58533e-05
3 *9546:Z 9.26238e-05
4 *406:31 0.0154135
5 *406:29 0.0161153
6 *406:16 0.0112341
7 *406:12 0.0105591
*RES
1 *9546:Z *406:12 18.5683 
2 *406:12 *406:16 46.5318 
3 *406:16 *9632:GWEN 9.47171 
4 *406:16 *406:29 6.60029 
5 *406:29 *406:31 141.024 
6 *406:31 *9634:GWEN 9 
*END

*D_NET *407 0.0753764
*CONN
*I *9267:A3 I *D gf180mcu_fd_sc_mcu7t5v0__nor3_2
*I *9266:A2 I *D gf180mcu_fd_sc_mcu7t5v0__nor2_1
*I *9632:CEN I *D gf180mcu_fd_ip_sram__sram256x8m8wm1
*I *9634:CEN I *D gf180mcu_fd_ip_sram__sram256x8m8wm1
*I *9547:Z O *D gf180mcu_fd_sc_mcu7t5v0__buf_8
*CAP
1 *9267:A3 0.000227597
2 *9266:A2 0.000189491
3 *9632:CEN 0.000138687
4 *9634:CEN 5.45489e-05
5 *9547:Z 0.00282954
6 *407:57 0.00152116
7 *407:28 0.0164547
8 *407:26 0.0164513
9 *407:22 0.00407527
10 *407:20 0.00561092
11 *9266:A2 *648:14 0
12 *9267:A3 *9375:I1 2.81522e-06
13 *9267:A3 *648:34 0
14 *407:20 *9374:I1 0
15 *407:20 *9451:RN 2.38773e-05
16 *407:20 *9452:I 0.000188241
17 *407:20 *408:25 0.00113591
18 *407:20 *513:49 1.76687e-05
19 *407:20 *594:83 4.08204e-05
20 *407:22 *9213:A1 0.00168309
21 *407:22 *458:24 0.000116466
22 *407:22 *463:18 0.000116466
23 *407:57 *9141:A1 1.53294e-05
24 *407:57 *9375:I0 9.03002e-05
25 *407:57 *9449:RN 0.000175569
26 *407:57 *9451:RN 0.00167145
27 *407:57 *460:160 0
28 *407:57 *614:10 0.000970001
29 *407:57 *648:10 0
30 *407:57 *648:14 0
31 tl_o[8] *407:22 3.58826e-05
32 *9136:A1 *407:20 0.000123798
33 *9267:A2 *9266:A2 4.97993e-05
34 *9267:A2 *9267:A3 2.46831e-05
35 *9267:A2 *407:57 3.83532e-05
36 *9268:I1 *9266:A2 6.97042e-05
37 *9268:I1 *407:57 2.59677e-05
38 *9311:A1 *407:20 2.19312e-06
39 *9312:A1 *407:57 6.64873e-05
40 *9312:A3 *407:57 0.00159917
41 *9312:A4 *407:57 1.57479e-05
42 *9397:D *9267:A3 0.000497696
43 *9632:WEN[7] *407:22 0.00372395
44 *189:34 *407:22 0.0035921
45 *189:38 *407:22 0.000137017
46 *189:40 *407:22 0.00324614
47 *189:42 *407:22 0.00365075
48 *189:42 *407:26 3.56338e-05
49 *245:61 *407:20 0.000415294
50 *256:12 *407:20 4.18157e-05
51 *257:18 *407:20 0.000108754
52 *299:16 *9267:A3 3.99505e-05
53 *375:69 *9267:A3 1.16343e-05
54 *378:176 *407:22 4.93913e-05
55 *401:20 *407:22 0.0039734
*RES
1 *9547:Z *407:20 29.96 
2 *407:20 *407:22 69.992 
3 *407:22 *407:26 4.812 
4 *407:26 *407:28 149.448 
5 *407:28 *9634:CEN 9.468 
6 *407:22 *9632:CEN 5.384 
7 *9547:Z *407:57 21.896 
8 *407:57 *9266:A2 10.144 
9 *407:57 *9267:A3 11.184 
*END

*D_NET *408 0.0284185
*CONN
*I *9341:S I *D gf180mcu_fd_sc_mcu7t5v0__mux2_2
*I *9549:I I *D gf180mcu_fd_sc_mcu7t5v0__buf_4
*I *9333:S I *D gf180mcu_fd_sc_mcu7t5v0__mux2_2
*I *9337:S I *D gf180mcu_fd_sc_mcu7t5v0__mux2_2
*I *9452:I I *D gf180mcu_fd_sc_mcu7t5v0__buf_1
*I *9453:I I *D gf180mcu_fd_sc_mcu7t5v0__buf_1
*I *9345:S I *D gf180mcu_fd_sc_mcu7t5v0__mux2_2
*I *9467:Z O *D gf180mcu_fd_sc_mcu7t5v0__dlyd_1
*CAP
1 *9341:S 0.000481921
2 *9549:I 0.000468726
3 *9333:S 0
4 *9337:S 0.000534519
5 *9452:I 3.36842e-05
6 *9453:I 0.000109769
7 *9345:S 0
8 *9467:Z 2.02544e-05
9 *408:60 0.00061792
10 *408:51 0.00289622
11 *408:25 0.00243371
12 *408:14 0.00251699
13 *408:6 0.00294141
14 *9341:S *9341:I1 0.00104228
15 *9341:S *444:18 0.000441579
16 *9452:I *9233:A2 2.66445e-05
17 *9452:I *594:83 7.80235e-06
18 *9453:I *9231:A2 0.000729609
19 *9453:I *9374:I1 3.4596e-05
20 *9453:I *9612:I 1.07369e-05
21 *9549:I *9562:I 2.49012e-05
22 *9549:I *444:6 0.000337769
23 *408:6 *416:14 9.7618e-05
24 *408:14 *9259:B2 0.00011637
25 *408:14 *513:20 0.000810489
26 *408:25 *9233:A2 8.96632e-05
27 *408:25 *9243:A1 9.05769e-05
28 *408:25 *9259:B2 0.000236647
29 *408:25 *9345:I1 5.64752e-05
30 *408:25 *9374:I1 0.000163314
31 *408:25 *441:57 0.000807242
32 *408:25 *511:55 9.92195e-05
33 *408:25 *516:18 0.00025982
34 *408:51 *9226:A2 2.39382e-05
35 *408:51 *416:14 0.000773075
36 *408:51 *441:34 0
37 *408:51 *444:18 0.000257805
38 *408:60 *9337:I1 0
39 *408:60 *444:6 4.97963e-05
40 *408:60 *444:18 5.78603e-05
41 tl_o[0] *408:14 0.000329258
42 tl_o[0] *408:25 0.000605614
43 tl_o[0] *408:51 3.83774e-05
44 tl_o[5] *408:6 0.000105623
45 tl_o[5] *408:51 0.000673558
46 *9337:I0 *9337:S 0.000422647
47 *9337:I0 *9549:I 0.000115092
48 *9337:I0 *408:60 0.000671562
49 *9341:I0 *9341:S 8.39684e-05
50 *9345:I0 *408:25 0.00250084
51 *9435:D *9337:S 0.000155298
52 *9435:D *408:60 1.07369e-05
53 *9497:I *9341:S 0
54 *9539:I *408:51 2.04184e-05
55 *9574:I *408:51 8.94067e-05
56 *295:12 *408:51 0.000110661
57 *378:108 *9549:I 7.51562e-05
58 *378:176 *408:25 0.000437408
59 *393:14 *408:14 0.000156364
60 *393:14 *408:51 0
61 *401:20 *9453:I 0.000149817
62 *401:20 *408:25 0.000641592
63 *407:20 *9452:I 0.000188241
64 *407:20 *408:25 0.00113591
*RES
1 *9467:Z *408:6 4.812 
2 *408:6 *408:14 12.12 
3 *408:14 *9345:S 4.5 
4 *408:14 *408:25 28.628 
5 *408:25 *9453:I 10.976 
6 *408:25 *9452:I 9.52 
7 *408:6 *408:51 27.928 
8 *408:51 *9337:S 5.644 
9 *408:51 *408:60 1.976 
10 *408:60 *9333:S 4.5 
11 *408:60 *9549:I 8.66 
12 *9337:S *9341:S 13.992 
*END

*D_NET *409 0.0113176
*CONN
*I *9166:S I *D gf180mcu_fd_sc_mcu7t5v0__mux2_2
*I *9162:S I *D gf180mcu_fd_sc_mcu7t5v0__mux2_2
*I *9158:S I *D gf180mcu_fd_sc_mcu7t5v0__mux2_2
*I *9154:S I *D gf180mcu_fd_sc_mcu7t5v0__mux2_2
*I *9150:S I *D gf180mcu_fd_sc_mcu7t5v0__mux2_2
*I *9636:Z O *D gf180mcu_fd_sc_mcu7t5v0__buf_4
*CAP
1 *9166:S 0.000273424
2 *9162:S 0
3 *9158:S 0.0002707
4 *9154:S 0
5 *9150:S 0.000326806
6 *9636:Z 0.000934213
7 *409:29 0.000475491
8 *409:14 0.00077175
9 *409:12 0.00220667
10 *409:10 0.00317415
11 *9150:S *9150:I1 0.000397755
12 *9150:S *552:8 6.53324e-05
13 *9150:S *553:12 0.000241108
14 *9150:S *555:8 0
15 *9158:S *9162:I1 0
16 *9158:S *551:10 0
17 *9158:S *552:8 3.30133e-05
18 *9166:S *554:8 0
19 *409:10 *425:32 0.000236267
20 *409:12 *9148:A2 0.000292274
21 *409:12 *425:32 0.000227004
22 *409:12 *425:42 0.000348053
23 *409:12 *425:53 0.000252289
24 *409:14 *553:12 0.00014584
25 *409:14 *555:8 0
26 *409:29 *9162:I1 0
27 *409:29 *552:8 7.27258e-05
28 *9150:I0 *409:12 0
29 *9150:I0 *409:14 0
30 *9154:I0 *409:12 6.40114e-06
31 *9154:I0 *409:14 7.5988e-05
32 *9162:I0 *409:12 0.000490298
33 *9416:D *409:12 0
*RES
1 *9636:Z *409:10 16.696 
2 *409:10 *409:12 20.072 
3 *409:12 *409:14 2.808 
4 *409:14 *9150:S 12.12 
5 *409:14 *409:29 6.06 
6 *409:29 *9154:S 4.5 
7 *409:29 *9158:S 6.268 
8 *409:12 *9162:S 9 
9 *409:10 *9166:S 10.56 
*END

*D_NET *410 0.0385643
*CONN
*I *9317:S I *D gf180mcu_fd_sc_mcu7t5v0__mux2_2
*I *9636:I I *D gf180mcu_fd_sc_mcu7t5v0__buf_4
*I *9548:Z O *D gf180mcu_fd_sc_mcu7t5v0__clkbuf_4
*CAP
1 *9317:S 0
2 *9636:I 0
3 *9548:Z 0.000981269
4 *410:20 0.0166335
5 *410:18 0.0173523
6 *410:12 0.00170008
7 *410:12 *9325:S 0.000189208
8 *9317:I0 *410:12 0.000246355
9 *9493:I *410:18 0.00146164
*RES
1 *9548:Z *410:12 20.78 
2 *410:12 *410:18 17.008 
3 *410:18 *410:20 151.32 
4 *410:20 *9636:I 13.5 
5 *410:12 *9317:S 4.5 
*END

*D_NET *411 0.0273296
*CONN
*I *9548:I I *D gf180mcu_fd_sc_mcu7t5v0__clkbuf_4
*I *9325:S I *D gf180mcu_fd_sc_mcu7t5v0__mux2_2
*I *9585:I I *D gf180mcu_fd_sc_mcu7t5v0__dlyd_1
*I *9329:S I *D gf180mcu_fd_sc_mcu7t5v0__mux2_2
*I *9321:S I *D gf180mcu_fd_sc_mcu7t5v0__mux2_2
*I *9549:Z O *D gf180mcu_fd_sc_mcu7t5v0__buf_4
*CAP
1 *9548:I 0
2 *9325:S 0.000464825
3 *9585:I 0
4 *9329:S 0
5 *9321:S 0.000492021
6 *9549:Z 0.00375299
7 *411:50 0.000634436
8 *411:16 0.000789353
9 *411:14 0.00472119
10 *411:12 0.00800723
11 *9321:S *9321:I1 0.000153099
12 *9321:S *9588:I 4.41041e-05
13 *9321:S *444:35 3.21875e-05
14 *9321:S *444:37 1.29805e-05
15 *9325:S *9589:I 0
16 *411:12 *9218:A2 0.000818781
17 *411:12 *9277:A1 0
18 *411:12 *444:18 0.000338356
19 *411:12 *444:31 0
20 *411:12 *594:32 1.23682e-05
21 *411:12 *594:38 0.000684648
22 *411:14 *9588:I 0.000442894
23 *411:14 *444:33 0.00133126
24 *411:16 *9588:I 0.000732127
25 *411:16 *9590:I 0.000387295
26 *411:16 *444:33 0.000143204
27 *411:16 *444:35 9.77992e-06
28 *411:50 *9589:I 0
29 *9321:I0 *9321:S 4.55636e-06
30 *9325:I0 *9325:S 7.12302e-05
31 *9333:I0 *411:12 0.00086392
32 *9337:I0 *411:12 0.00174894
33 *9341:I0 *411:12 0
34 *9574:I *411:12 0
35 *393:14 *411:12 0.000446622
36 *410:12 *9325:S 0.000189208
*RES
1 *9549:Z *411:12 42.904 
2 *411:12 *411:14 44.72 
3 *411:14 *411:16 8.632 
4 *411:16 *9321:S 11.704 
5 *411:16 *9329:S 9 
6 *411:14 *9585:I 9 
7 *9321:S *411:50 10.144 
8 *411:50 *9325:S 12.536 
9 *411:50 *9548:I 9 
*END

*D_NET *412 0.0593401
*CONN
*I *9552:I I *D gf180mcu_fd_sc_mcu7t5v0__clkbuf_4
*I *9349:S I *D gf180mcu_fd_sc_mcu7t5v0__mux2_2
*I *9357:S I *D gf180mcu_fd_sc_mcu7t5v0__mux2_2
*I *9638:I I *D gf180mcu_fd_sc_mcu7t5v0__buf_4
*I *9467:I I *D gf180mcu_fd_sc_mcu7t5v0__dlyd_1
*I *9468:Z O *D gf180mcu_fd_sc_mcu7t5v0__dlyd_1
*CAP
1 *9552:I 1.83723e-05
2 *9349:S 0.000123792
3 *9357:S 0.000539522
4 *9638:I 0.000625637
5 *9467:I 4.49844e-05
6 *9468:Z 0.000295463
7 *412:79 0.000686
8 *412:64 0.00306939
9 *412:43 0.002714
10 *412:31 0.00570404
11 *412:10 0.00197009
12 *9357:S *419:14 7.98538e-05
13 *9638:I *9141:A2 0.000276007
14 *9638:I *9179:A2 0.00106072
15 *9638:I *9301:A1 0.000104921
16 *9638:I *9377:I0 0.00137749
17 *9638:I *439:18 0.00047774
18 *9638:I *460:160 0.000123121
19 *9638:I *651:6 0.00168374
20 *412:10 *9258:A1 0.0011949
21 *412:10 *9259:A2 3.42651e-05
22 *412:31 *9258:A1 0.000354209
23 *412:31 *559:18 0.000270227
24 *412:43 *9640:I 7.41111e-05
25 *412:43 *431:24 0.0028869
26 *412:43 *448:67 0.000310074
27 *412:43 *512:16 3.02612e-05
28 *412:43 *559:18 0.0106669
29 *412:64 *9221:A1 3.70435e-05
30 *412:64 *9640:I 0.000411787
31 *412:64 *421:19 0.000354628
32 *412:64 *445:14 0.000253908
33 *412:64 *472:10 5.79995e-05
34 *412:64 *495:14 0.000274044
35 *412:64 *512:16 5.06313e-05
36 *412:64 *613:22 0.0003309
37 *412:79 *9390:I0 0.000100177
38 *412:79 *419:14 0
39 *412:79 *445:14 0.000123598
40 tl_o[27] *412:31 0.000212704
41 tl_o[56] *412:31 0.000559922
42 tl_o[6] *412:64 6.92414e-05
43 *9255:A1 *412:64 0.000542592
44 *9262:B *412:10 0.000192895
45 *9262:B *412:31 0.00139462
46 *9357:I0 *9357:S 7.23713e-06
47 *9357:I0 *412:79 0.00062476
48 *9408:D *9349:S 8.24722e-05
49 *9408:D *412:79 0.000490961
50 *9499:I *412:64 0.0050354
51 *9499:I *412:79 9.5997e-05
52 *9500:I *9357:S 0.001736
53 *9525:I *412:10 0.000133934
54 *9526:I *412:43 0.000106581
55 *9526:I *412:64 0.00272678
56 *9540:I *412:64 0.000252201
57 *9576:I *412:64 0.00215668
58 *192:8 *9638:I 4.49307e-05
59 *192:10 *9638:I 0.000159268
60 *205:12 *9349:S 3.73779e-05
61 *207:12 *9552:I 4.18042e-05
62 *207:12 *412:79 0.000220496
63 *258:18 *412:43 0
64 *278:10 *9638:I 0.000979229
65 *281:16 *9638:I 0.00211194
66 *393:14 *412:31 0.000532558
*RES
1 *9468:Z *412:10 12.536 
2 *412:10 *9467:I 9.312 
3 *412:10 *412:31 25.224 
4 *412:31 *412:43 43.556 
5 *412:43 *9638:I 21.036 
6 *412:31 *412:64 37.392 
7 *412:64 *9357:S 14.512 
8 *412:64 *412:79 11.572 
9 *412:79 *9349:S 5.748 
10 *412:79 *9552:I 4.812 
*END

*D_NET *413 0.0301669
*CONN
*I *9178:S I *D gf180mcu_fd_sc_mcu7t5v0__mux2_2
*I *9174:S I *D gf180mcu_fd_sc_mcu7t5v0__mux2_2
*I *9170:S I *D gf180mcu_fd_sc_mcu7t5v0__mux2_2
*I *9637:Z O *D gf180mcu_fd_sc_mcu7t5v0__buf_4
*CAP
1 *9178:S 0
2 *9174:S 0.000208036
3 *9170:S 0.000465793
4 *9637:Z 0.000967576
5 *413:28 0.00998204
6 *413:26 0.00988312
7 *413:18 0.00130833
8 *413:14 0.00170101
9 *9170:S *442:23 1.6659e-05
10 *9174:S *443:41 4.78801e-05
11 *413:14 *9176:A1 1.53294e-05
12 *413:14 *426:29 0.000207779
13 *413:18 *434:12 4.94991e-05
14 *413:18 *443:41 0.000186177
15 *413:26 *434:25 7.89888e-05
16 *413:26 *443:41 3.71367e-05
17 *413:28 *9168:A1 0
18 *413:28 *425:10 0
19 *413:28 *425:18 0
20 *413:28 *434:25 0
21 *413:28 *434:29 0
22 *413:28 *434:31 0
23 *9165:A1 *413:28 0
24 *9165:A2 *413:28 0.000335348
25 *9169:A2 *413:28 0.000335348
26 *9170:I0 *9170:S 0.000181002
27 *9170:I0 *413:28 0
28 *9174:I0 *9174:S 5.3062e-05
29 *9178:I0 *413:14 0.000404241
30 *9422:D *9174:S 2.81522e-06
31 *9423:CLK *413:14 2.38773e-05
32 *220:10 *413:14 0.000183528
33 *261:18 *413:14 0.000202
34 *261:24 *413:14 0
35 *261:24 *413:18 0.00329031
36 *330:35 *413:28 0
37 *379:52 *413:28 0
38 *379:58 *413:28 0
*RES
1 *9637:Z *413:14 22.34 
2 *413:14 *413:18 15.628 
3 *413:18 *413:26 11.912 
4 *413:26 *413:28 84.552 
5 *413:28 *9170:S 12.432 
6 *413:18 *9174:S 10.352 
7 *413:14 *9178:S 4.5 
*END

*D_NET *414 0.0498025
*CONN
*I *9637:I I *D gf180mcu_fd_sc_mcu7t5v0__buf_4
*I *9183:S I *D gf180mcu_fd_sc_mcu7t5v0__mux2_2
*I *9638:Z O *D gf180mcu_fd_sc_mcu7t5v0__buf_4
*CAP
1 *9637:I 0.00252483
2 *9183:S 0
3 *9638:Z 0.00219974
4 *414:17 0.0107222
5 *414:10 0.0103971
6 *414:10 *439:35 0.00119465
7 *414:17 *9180:A1 0
8 *9183:I0 *414:10 7.87395e-06
9 *9183:I0 *414:17 0.000914737
10 *9466:I *414:10 0.000509988
11 *192:10 *414:10 0.00984502
12 *192:10 *414:17 0.0107139
13 *261:18 *9637:I 0
14 *331:10 *414:17 0.000295378
15 *379:46 *9637:I 0.000476961
*RES
1 *9638:Z *414:10 32.684 
2 *414:10 *9183:S 4.5 
3 *414:10 *414:17 84.344 
4 *414:17 *9637:I 37.524 
*END

*D_NET *415 0.0164294
*CONN
*I *9211:S I *D gf180mcu_fd_sc_mcu7t5v0__mux2_2
*I *9207:S I *D gf180mcu_fd_sc_mcu7t5v0__mux2_2
*I *9203:S I *D gf180mcu_fd_sc_mcu7t5v0__mux2_2
*I *9199:S I *D gf180mcu_fd_sc_mcu7t5v0__mux2_2
*I *9195:S I *D gf180mcu_fd_sc_mcu7t5v0__mux2_2
*I *9550:Z O *D gf180mcu_fd_sc_mcu7t5v0__buf_3
*CAP
1 *9211:S 0.000729308
2 *9207:S 8.70585e-05
3 *9203:S 9.46251e-05
4 *9199:S 9.77677e-05
5 *9195:S 0.000150744
6 *9550:Z 0.000581142
7 *415:47 0.00101697
8 *415:34 0.000411863
9 *415:23 0.00128034
10 *415:12 0.00179782
11 *9195:S *9191:I1 7.87395e-06
12 *9199:S *9199:I1 8.21146e-06
13 *9203:S *9199:I1 0.000332316
14 *9207:S *9199:I1 0
15 *9207:S *9207:I1 1.09477e-05
16 *9211:S *9199:I1 0
17 *9211:S *9207:I1 3.72971e-05
18 *9211:S *446:14 2.73715e-06
19 *9211:S *446:21 8.19467e-05
20 *415:23 *9201:A1 0.0011527
21 *415:23 *9209:A2 0.000576993
22 *415:23 *446:40 0.00125163
23 *415:34 *446:40 1.06742e-05
24 *415:47 *446:34 3.09755e-05
25 *415:47 *446:36 5.28408e-05
26 *415:47 *446:40 8.35178e-06
27 *9195:I0 *415:12 0.00116868
28 *9199:I0 *415:23 0.000768503
29 *9203:I0 *415:23 0.000425443
30 *9203:I0 *415:34 0.000148497
31 *9207:I0 *9207:S 0.000114669
32 *9207:I0 *415:23 6.96644e-06
33 *9207:I0 *415:34 7.37782e-05
34 *9207:I0 *415:47 1.2629e-05
35 *9210:A1 *9199:S 5.13239e-06
36 *9211:I0 *9211:S 0.000582256
37 *9429:D *415:23 0.000106014
38 *228:8 *9199:S 1.33033e-05
39 *381:136 *415:12 0.00159334
40 *381:136 *415:23 0.000999283
41 *384:8 *415:12 1.28023e-05
42 *384:8 *415:23 2.13965e-05
43 *386:8 *415:47 0.000465991
44 *387:8 *9211:S 9.76253e-05
*RES
1 *9550:Z *415:12 21.792 
2 *415:12 *9195:S 9.936 
3 *415:12 *415:23 20.904 
4 *415:23 *9199:S 9.728 
5 *415:23 *415:34 1.56 
6 *415:34 *9203:S 9.936 
7 *415:34 *415:47 6.268 
8 *415:47 *9207:S 5.228 
9 *415:47 *9211:S 10.116 
*END

*D_NET *416 0.0124017
*CONN
*I *9130:I I *D gf180mcu_fd_sc_mcu7t5v0__clkinv_1
*I *9258:B2 I *D gf180mcu_fd_sc_mcu7t5v0__aoi22_1
*I *9259:B1 I *D gf180mcu_fd_sc_mcu7t5v0__oai22_1
*I *9480:Z O *D gf180mcu_fd_sc_mcu7t5v0__dlyd_1
*CAP
1 *9130:I 0.000941215
2 *9258:B2 0.000830409
3 *9259:B1 2.47265e-05
4 *9480:Z 0
5 *416:14 0.00152631
6 *416:4 0.00161239
7 *9130:I *9592:I 0.000180228
8 *9130:I *441:34 0.00041022
9 *9130:I *514:14 8.31839e-05
10 *9258:B2 *9258:A2 0.000264936
11 *9258:B2 *9379:I0 5.35322e-06
12 *9259:B1 *9259:B2 4.41346e-05
13 *416:14 *9226:A2 2.8821e-05
14 *416:14 *9259:B2 0.000199563
15 *416:14 *9595:I 0.000112755
16 *416:14 *420:14 0.000706734
17 *416:14 *513:20 4.93451e-05
18 *416:14 *516:48 1.56624e-05
19 tl_o[0] *9130:I 0
20 tl_o[0] *9259:B1 1.23682e-05
21 tl_o[0] *416:14 0.000203586
22 tl_o[20] *9130:I 0.000387186
23 tl_o[20] *9258:B2 0.000269899
24 tl_o[54] *9258:B2 0.000104542
25 tl_o[5] *416:14 0.000185454
26 *9261:A2 *9258:B2 2.41004e-05
27 *9262:B *9258:B2 0
28 *9474:I *9130:I 0.000994572
29 *9537:I *9258:B2 7.13312e-06
30 *9537:I *416:14 2.11015e-05
31 *9538:I *9258:B2 3.55699e-06
32 *9538:I *9259:B1 0.000188403
33 *9538:I *416:14 0.00155718
34 *9539:I *416:14 0.00030364
35 *9543:I *9258:B2 5.35527e-06
36 *3:46 *9130:I 0.000154409
37 *128:26 *9258:B2 3.23531e-05
38 *380:57 *9130:I 4.01434e-05
39 *408:6 *416:14 9.7618e-05
40 *408:51 *416:14 0.000773075
*RES
1 *9480:Z *416:4 4.5 
2 *416:4 *416:14 18.88 
3 *416:14 *9259:B1 5.02 
4 *416:14 *9258:B2 19.116 
5 *416:4 *9130:I 22.236 
*END

*D_NET *417 0.0771623
*CONN
*I *9550:I I *D gf180mcu_fd_sc_mcu7t5v0__buf_3
*I *9191:S I *D gf180mcu_fd_sc_mcu7t5v0__mux2_2
*I *9551:Z O *D gf180mcu_fd_sc_mcu7t5v0__buf_4
*CAP
1 *9550:I 0.000171862
2 *9191:S 0.000200886
3 *9551:Z 0.000113962
4 *417:12 0.00924793
5 *417:10 0.00933287
6 *9550:I *429:6 0.00025082
7 *9550:I *429:40 7.6402e-05
8 *417:12 *430:14 0.0576423
9 *9191:I0 *9550:I 9.88854e-06
10 *9195:I0 *9191:S 0.0001154
*RES
1 *9551:Z *417:10 14.228 
2 *417:10 *417:12 152.984 
3 *417:12 *9191:S 13.812 
4 *9191:S *9550:I 10.456 
*END

*D_NET *418 0.020123
*CONN
*I *9551:I I *D gf180mcu_fd_sc_mcu7t5v0__buf_4
*I *9145:S I *D gf180mcu_fd_sc_mcu7t5v0__mux2_2
*I *9187:S I *D gf180mcu_fd_sc_mcu7t5v0__mux2_2
*I *9353:S I *D gf180mcu_fd_sc_mcu7t5v0__mux2_2
*I *9552:Z O *D gf180mcu_fd_sc_mcu7t5v0__clkbuf_4
*CAP
1 *9551:I 0
2 *9145:S 0.000310172
3 *9187:S 0
4 *9353:S 0.00054856
5 *9552:Z 0.000267515
6 *418:39 0.000348081
7 *418:35 0.00722676
8 *418:33 0.00731438
9 *418:6 0.000690545
10 *9353:S *9633:D[2] 0.000207191
11 *9353:S *448:49 0.000115553
12 *418:6 *9187:I1 4.18157e-05
13 *418:6 *9633:D[2] 0.000490284
14 *418:6 *448:49 0
15 *418:33 *9284:A1 0.000499229
16 *418:35 *9285:A1 0.000234122
17 *418:35 *9601:I 0
18 *418:35 *9614:I 0.000516665
19 *418:35 *9648:I 0
20 *418:35 *447:10 0
21 *418:35 *448:12 0.000346597
22 *9145:I0 *9145:S 0.000440025
23 *9145:I0 *418:39 4.11759e-05
24 *9187:I0 *418:6 0.000224771
25 *9284:A2 *9353:S 0.000104816
26 *9285:A2 *418:33 0
27 *9353:I0 *9353:S 9.35542e-06
28 *380:8 *9353:S 3.4596e-05
29 *380:25 *9353:S 9.82096e-05
30 *380:25 *418:6 1.26329e-05
31 *380:152 *418:35 0
*RES
1 *9552:Z *418:6 7.932 
2 *418:6 *9353:S 17.244 
3 *418:6 *9187:S 4.5 
4 *9353:S *418:33 10.352 
5 *418:33 *418:35 65.416 
6 *418:35 *418:39 4.812 
7 *418:39 *9145:S 7.516 
8 *418:39 *9551:I 4.5 
*END

*D_NET *419 0.0255224
*CONN
*I *9369:S I *D gf180mcu_fd_sc_mcu7t5v0__mux2_2
*I *9373:S I *D gf180mcu_fd_sc_mcu7t5v0__mux2_2
*I *9365:S I *D gf180mcu_fd_sc_mcu7t5v0__mux2_2
*I *9361:S I *D gf180mcu_fd_sc_mcu7t5v0__mux2_2
*I *9639:Z O *D gf180mcu_fd_sc_mcu7t5v0__buf_3
*CAP
1 *9369:S 0.000248131
2 *9373:S 5.43998e-05
3 *9365:S 0.000218894
4 *9361:S 0.000444288
5 *9639:Z 0.00154166
6 *419:40 0.000313347
7 *419:29 0.00193417
8 *419:27 0.00558587
9 *419:14 0.00586736
10 *9361:S *9599:I 0.000100181
11 *9361:S *448:20 0
12 *9365:S *447:16 3.07277e-05
13 *9369:S *9369:I1 0.00011246
14 *9369:S *9603:I 0.000919388
15 *9369:S *447:25 0.000728207
16 *9369:S *447:36 0.000199998
17 *419:14 *9248:A1 0.000136316
18 *419:14 *9347:A1 0.00061506
19 *419:14 *9390:I0 2.69247e-05
20 *419:14 *9390:S 2.38773e-05
21 *419:14 *9599:I 0.00020618
22 *419:14 *445:14 8.33396e-06
23 *419:14 *448:20 0
24 *419:27 *9648:I 0
25 *419:27 *445:20 0
26 *419:27 *447:10 0.000462662
27 *419:29 *9602:I 0.00111851
28 *419:29 *9603:I 0.00126228
29 *419:29 *447:10 0.00179958
30 *419:29 *447:16 0.000367043
31 *419:40 *9603:I 0.000441747
32 *419:40 *447:16 8.35223e-05
33 *419:40 *447:25 0.000367033
34 *9255:A1 *419:14 2.26659e-05
35 *9357:I0 *9361:S 1.98457e-05
36 *9357:I0 *419:14 7.86587e-06
37 *9357:S *419:14 7.98538e-05
38 *9369:I0 *9369:S 6.18411e-06
39 *9373:I0 *9365:S 0
40 *9373:I0 *9369:S 0
41 *9373:I0 *9373:S 1.40331e-05
42 *9408:D *419:14 0
43 *9499:I *419:14 0
44 *9499:I *419:27 0
45 *9502:I *419:27 0.000153809
46 *412:79 *419:14 0
*RES
1 *9639:Z *419:14 24.42 
2 *419:14 *9361:S 7.724 
3 *419:14 *419:27 41.628 
4 *419:27 *419:29 25.584 
5 *419:29 *9365:S 10.352 
6 *419:29 *419:40 1.144 
7 *419:40 *9373:S 9.312 
8 *419:40 *9369:S 12.952 
*END

*D_NET *420 0.015469
*CONN
*I *9640:I I *D gf180mcu_fd_sc_mcu7t5v0__clkbuf_4
*I *9553:I I *D gf180mcu_fd_sc_mcu7t5v0__buf_4
*I *9379:S I *D gf180mcu_fd_sc_mcu7t5v0__mux2_2
*I *9378:S I *D gf180mcu_fd_sc_mcu7t5v0__mux2_2
*I *9469:Z O *D gf180mcu_fd_sc_mcu7t5v0__dlyd_1
*CAP
1 *9640:I 0.000669692
2 *9553:I 1.87937e-05
3 *9379:S 0.000130375
4 *9378:S 0.000708525
5 *9469:Z 6.79661e-05
6 *420:14 0.00209133
7 *420:6 0.00200888
8 *9378:S *9379:I0 0.000406156
9 *9379:S *9379:I0 0.0010234
10 *9379:S *9379:I1 0
11 *9553:I *9592:I 0.000113016
12 *9640:I *9378:I0 0.000233127
13 *9640:I *9378:I1 0
14 *9640:I *512:16 5.89625e-05
15 *420:14 *9378:I1 4.99626e-05
16 *420:14 *9592:I 0.000245653
17 *420:14 *9595:I 3.4596e-05
18 *420:14 *514:14 0.000173452
19 tl_o[0] *9553:I 1.26329e-05
20 tl_o[0] *420:14 0.000232419
21 tl_o[23] *420:14 0.000849695
22 tl_o[56] *9640:I 0
23 tl_o[6] *9640:I 0.000143892
24 *9432:D *420:14 0.000685528
25 *9468:I *9378:S 0.000406156
26 *9468:I *9379:S 0.00113642
27 *9468:I *420:14 0.000104022
28 *9536:I *420:14 2.77933e-05
29 *9537:I *420:14 0.000131787
30 *9539:I *420:14 6.57935e-06
31 *393:14 *9640:I 0.00250554
32 *393:14 *420:14 0
33 *412:43 *9640:I 7.41111e-05
34 *412:64 *9640:I 0.000411787
35 *416:14 *420:14 0.000706734
*RES
1 *9469:Z *420:6 5.02 
2 *420:6 *420:14 24.184 
3 *420:14 *9378:S 5.644 
4 *420:14 *9379:S 7.724 
5 *420:6 *9553:I 4.812 
6 *9378:S *9640:I 27.256 
*END

*D_NET *421 0.0342536
*CONN
*I *9389:S I *D gf180mcu_fd_sc_mcu7t5v0__mux2_2
*I *9388:A2 I *D gf180mcu_fd_sc_mcu7t5v0__oai21_1
*I *9390:S I *D gf180mcu_fd_sc_mcu7t5v0__mux2_2
*I *9387:A2 I *D gf180mcu_fd_sc_mcu7t5v0__nand2_1
*I *9384:S I *D gf180mcu_fd_sc_mcu7t5v0__mux2_2
*I *9382:S I *D gf180mcu_fd_sc_mcu7t5v0__mux2_2
*I *9385:S I *D gf180mcu_fd_sc_mcu7t5v0__mux2_2
*I *9640:Z O *D gf180mcu_fd_sc_mcu7t5v0__clkbuf_4
*CAP
1 *9389:S 0.000203755
2 *9388:A2 0.00019211
3 *9390:S 0.00110884
4 *9387:A2 0.000451821
5 *9384:S 0
6 *9382:S 0.000276093
7 *9385:S 0.000116301
8 *9640:Z 0
9 *421:79 0.000664947
10 *421:54 0.00144159
11 *421:41 0.00089418
12 *421:19 0.000475548
13 *421:13 0.000584305
14 *421:4 0.000122464
15 *9382:S *9214:A1 0.000330462
16 *9382:S *9382:I0 0.000113016
17 *9385:S *594:135 0.000106889
18 *9387:A2 *9215:A1 0.000400726
19 *9388:A2 *9235:A2 0.000106908
20 *9388:A2 *9269:A1 1.25461e-05
21 *9388:A2 *9282:A1 7.9859e-05
22 *9388:A2 *9282:A2 0.000219948
23 *9388:A2 *438:125 8.23267e-05
24 *9388:A2 *471:10 0.00019118
25 *9389:S *9221:A1 0.000103788
26 *9389:S *9246:A2 0.000179413
27 *9389:S *9252:A1 0.00037167
28 *9389:S *471:10 0.000427061
29 *9389:S *471:21 0.000922938
30 *9390:S *9390:I0 1.84221e-05
31 *9390:S *9390:I1 0.001181
32 *421:13 *594:135 3.42651e-05
33 *421:41 *475:16 0.000449558
34 *421:41 *514:14 0.000141094
35 *421:41 *594:135 0.000186082
36 *421:54 *475:16 0.000269664
37 *421:79 *9246:A2 0.00101629
38 *421:79 *471:10 0.000382248
39 *421:79 *475:16 0.000832336
40 tl_o[24] *9389:S 3.22108e-05
41 tl_o[53] *9387:A2 2.46957e-05
42 tl_o[53] *9390:S 0.000136444
43 tl_o[58] *421:41 0.000442364
44 tl_o[58] *421:54 0.000294959
45 tl_o[58] *421:79 0.000182219
46 tl_o[65] *9385:S 5.47431e-06
47 tl_o[6] *421:19 0.000183579
48 *9250:A3 *9387:A2 3.41124e-05
49 *9250:A3 *9390:S 0.000993314
50 *9255:A2 *9387:A2 0.00172269
51 *9384:I0 *421:41 0.000211436
52 *9385:I0 *9385:S 0.00092759
53 *9385:I0 *421:13 0.000113016
54 *9385:I0 *421:41 0.000674119
55 *9473:I *9388:A2 0.000202312
56 *9473:I *9389:S 0.000299917
57 *9474:I *9387:A2 0.000961997
58 *9474:I *9390:S 0.00149059
59 *9475:I *9390:S 0.00365715
60 *9520:I *9385:S 0.00071646
61 *9540:I *421:41 6.47035e-05
62 *9584:I *9389:S 0.000718923
63 *329:26 *9390:S 0.00418391
64 *375:92 *9382:S 0.000372266
65 *380:25 *9390:S 1.61126e-05
66 *399:18 *9387:A2 0.000251178
67 *399:18 *421:79 0.000269765
68 *412:64 *421:19 0.000354628
69 *419:14 *9390:S 2.38773e-05
*RES
1 *9640:Z *421:4 4.5 
2 *421:4 *9385:S 7.308 
3 *421:4 *421:13 0.312 
4 *421:13 *421:19 11.392 
5 *421:19 *9382:S 7.516 
6 *421:19 *9384:S 4.5 
7 *421:13 *421:41 13.68 
8 *421:41 *9387:A2 21.3 
9 *421:41 *421:54 0.936 
10 *421:54 *9390:S 38.044 
11 *421:54 *421:79 9.804 
12 *421:79 *9388:A2 11.704 
13 *421:79 *9389:S 13.992 
*END

*D_NET *422 0.0393153
*CONN
*I *9234:B I *D gf180mcu_fd_sc_mcu7t5v0__oai21_1
*I *9395:A1 I *D gf180mcu_fd_sc_mcu7t5v0__oai21_1
*I *9380:S I *D gf180mcu_fd_sc_mcu7t5v0__mux2_2
*I *9386:S I *D gf180mcu_fd_sc_mcu7t5v0__mux2_2
*I *9394:A2 I *D gf180mcu_fd_sc_mcu7t5v0__nand2_1
*I *9381:S I *D gf180mcu_fd_sc_mcu7t5v0__mux2_2
*I *9383:S I *D gf180mcu_fd_sc_mcu7t5v0__mux2_2
*I *9553:Z O *D gf180mcu_fd_sc_mcu7t5v0__buf_4
*CAP
1 *9234:B 0.000615717
2 *9395:A1 0.000103403
3 *9380:S 9.5876e-05
4 *9386:S 0.000276832
5 *9394:A2 0.000455915
6 *9381:S 0.000438803
7 *9383:S 0
8 *9553:Z 0.000175523
9 *422:85 0.0016223
10 *422:48 0.00232467
11 *422:31 0.00275717
12 *422:20 0.000835224
13 *422:14 0.000852024
14 *422:10 0.00172607
15 *9234:B *9134:A2 3.69187e-05
16 *9234:B *513:20 0.000155851
17 *9234:B *594:83 4.415e-05
18 *9380:S *9380:I1 0.000188241
19 *9381:S *9220:A1 0.000131187
20 *9381:S *9381:I0 0.000385441
21 *9381:S *9381:I1 3.26853e-05
22 *9381:S *9383:I1 4.66504e-05
23 *9381:S *9593:I 0.000172405
24 *9386:S *9381:I0 0.000973641
25 *9386:S *594:26 0.000946576
26 *9394:A2 *9381:I0 0.000556029
27 *9394:A2 *9394:A1 3.4596e-05
28 *9394:A2 *9632:D[7] 9.41093e-05
29 *9394:A2 *449:16 4.71521e-05
30 *9394:A2 *460:14 5.19951e-05
31 *9394:A2 *594:26 0.00189257
32 *422:10 *516:14 0.00109363
33 *422:14 *9383:I0 0.000102814
34 *422:20 *9380:I1 0.000597035
35 *422:20 *9383:I0 0.000103788
36 *422:31 *9380:I1 7.89812e-05
37 *422:31 *9383:I0 0.000410048
38 *422:31 *9383:I1 0.00076073
39 *422:31 *9593:I 0.000454351
40 *422:48 *9381:I0 0
41 *422:85 *9226:A1 0.00171764
42 *422:85 *9383:I0 4.74222e-05
43 *422:85 *9559:I 4.67771e-06
44 *9135:A2 *9234:B 3.94674e-05
45 *9234:A1 *9234:B 5.28381e-05
46 *9245:A1 *9234:B 5.24163e-05
47 *9333:I0 *9394:A2 0.000418233
48 *9395:A2 *9395:A1 4.09568e-05
49 *9395:B *9394:A2 4.88765e-05
50 *9395:B *9395:A1 8.01439e-05
51 *9395:B *422:85 0
52 *9434:D *422:14 0.0010392
53 *9470:I *9234:B 0.00205471
54 *9470:I *422:85 0.000847612
55 *9484:I *422:14 0.0033755
56 *9484:I *422:85 0.000534809
57 *9535:I *9380:S 5.38494e-05
58 *9535:I *422:20 0.000142069
59 *9538:I *9380:S 0
60 *9538:I *422:31 0.00030966
61 *9539:I *422:85 9.73706e-05
62 *9542:I *9380:S 3.51644e-05
63 *9655:I *9234:B 0.00049267
64 *9655:I *422:85 0.00010353
65 *9:23 *422:48 0.000118075
66 *204:8 *9394:A2 0.000150077
67 *295:20 *422:10 0.000398478
68 *328:12 *9394:A2 0.000498806
69 *370:49 *9234:B 0.000895244
70 *371:18 *9234:B 1.71809e-05
71 *380:47 *9234:B 7.11788e-06
72 *380:57 *9234:B 2.59877e-05
73 *396:18 *9234:B 0.00263857
74 *396:18 *9394:A2 0.000396414
75 *396:18 *422:85 0.00085643
76 *404:14 *9234:B 1.6659e-05
77 *405:31 *9386:S 3.63581e-05
*RES
1 *9553:Z *422:10 16.516 
2 *422:10 *422:14 13.756 
3 *422:14 *422:20 6.372 
4 *422:20 *9383:S 4.5 
5 *422:20 *422:31 14.484 
6 *422:31 *9381:S 12.536 
7 *422:31 *422:48 18.464 
8 *422:48 *9394:A2 16.904 
9 *422:48 *9386:S 12.744 
10 *422:14 *9380:S 9.936 
11 *422:10 *422:85 14.276 
12 *422:85 *9395:A1 9.728 
13 *422:85 *9234:B 20.232 
*END

*D_NET *423 0.00904668
*CONN
*I *9556:I I *D gf180mcu_fd_sc_mcu7t5v0__buf_4
*I *9554:I I *D gf180mcu_fd_sc_mcu7t5v0__clkbuf_4
*I *9343:A2 I *D gf180mcu_fd_sc_mcu7t5v0__nand2_1
*I *9470:Z O *D gf180mcu_fd_sc_mcu7t5v0__dlyd_1
*CAP
1 *9556:I 0.000883596
2 *9554:I 1.76425e-05
3 *9343:A2 0.000188487
4 *9470:Z 0
5 *423:8 0.000387054
6 *423:6 0.00106452
7 *9343:A2 *9632:D[6] 9.13819e-06
8 *9554:I *9394:A1 0.000184925
9 *9554:I *9632:D[7] 0.000184925
10 *9272:A3 *9343:A2 0.00124172
11 *9272:A3 *423:8 0.000406476
12 *9340:A1 *9343:A2 6.60693e-05
13 *9657:I *9556:I 0.00020934
14 *365:30 *9343:A2 0.00015283
15 *371:14 *9556:I 0.000169123
16 *371:14 *423:8 0.000151355
17 *371:18 *9556:I 0.000579742
18 *372:28 *9343:A2 0.000304632
19 *375:74 *9343:A2 0.000816854
20 *375:74 *9556:I 0.00136681
21 *375:74 *423:8 0.000509864
22 *396:18 *423:8 7.5904e-06
23 *401:20 *9556:I 0.000143981
*RES
1 *9470:Z *423:6 9 
2 *423:6 *423:8 3.432 
3 *423:8 *9343:A2 14.616 
4 *423:8 *9554:I 9.52 
5 *423:6 *9556:I 19.608 
*END

*D_NET *424 0.0303423
*CONN
*I *9339:A2 I *D gf180mcu_fd_sc_mcu7t5v0__nand2_1
*I *9331:A2 I *D gf180mcu_fd_sc_mcu7t5v0__nand2_1
*I *9327:A2 I *D gf180mcu_fd_sc_mcu7t5v0__nand2_1
*I *9319:A2 I *D gf180mcu_fd_sc_mcu7t5v0__nand2_1
*I *9315:A2 I *D gf180mcu_fd_sc_mcu7t5v0__nand2_1
*I *9323:A2 I *D gf180mcu_fd_sc_mcu7t5v0__nand2_1
*I *9335:A2 I *D gf180mcu_fd_sc_mcu7t5v0__nand2_1
*I *9554:Z O *D gf180mcu_fd_sc_mcu7t5v0__clkbuf_4
*CAP
1 *9339:A2 8.76295e-06
2 *9331:A2 4.69262e-05
3 *9327:A2 0
4 *9319:A2 0.000150433
5 *9315:A2 0.000378257
6 *9323:A2 0.000101744
7 *9335:A2 0.000144429
8 *9554:Z 0.000311475
9 *424:39 0.000755096
10 *424:33 0.000941063
11 *424:31 0.00689278
12 *424:29 0.00818664
13 *424:21 0.00214148
14 *424:19 0.000750094
15 *424:8 0.000912084
16 *9315:A2 *9315:A1 0.00027784
17 *9315:A2 *9632:D[3] 6.51159e-05
18 *9323:A2 *9323:A1 0.000332316
19 *9331:A2 *9632:D[5] 5.36452e-06
20 *9335:A2 *9335:A1 0.00017298
21 *9335:A2 *460:30 4.59225e-05
22 *9339:A2 *9339:A1 0.000113027
23 *9339:A2 *9632:D[6] 0.000113027
24 *424:8 *9271:A1 7.86954e-06
25 *424:8 *9271:A2 2.19245e-05
26 *424:8 *460:30 1.36398e-06
27 *424:19 *9335:A1 0.000187084
28 *424:19 *9343:A1 5.65788e-06
29 *424:19 *438:12 6.26086e-05
30 *424:19 *460:22 0.000441747
31 *424:29 *9331:A1 0.000246407
32 *424:39 *9323:A1 0.000136293
33 *9317:I0 *9315:A2 9.25324e-05
34 *9320:A2 *9319:A2 0.000116101
35 *9320:A2 *9323:A2 0
36 *9320:A2 *424:39 6.11708e-05
37 *9324:A1 *9315:A2 0.000132321
38 *9324:A2 *424:39 9.35542e-06
39 *9325:I0 *424:33 0.000883495
40 *9325:I0 *424:39 0.000438808
41 *9328:A1 *424:33 0
42 *9328:A1 *424:39 0
43 *9328:A2 *424:33 0.000123798
44 *9329:I0 *424:31 3.21839e-05
45 *9332:A1 *424:29 0.00129042
46 *9332:A2 *424:29 0.000447626
47 *9336:A1 *9331:A2 2.38773e-05
48 *9344:A1 *424:8 5.1032e-05
49 *9344:A2 *9335:A2 8.42801e-05
50 *9344:A2 *424:8 0.000157368
51 *9344:A2 *424:19 5.39368e-06
52 *9400:CLK *9315:A2 0.000256266
53 *9402:CLK *9319:A2 0.000205662
54 *9406:CLK *9335:A2 3.4596e-05
55 *197:10 *9315:A2 0.000124086
56 *199:10 *9315:A2 0.00120818
57 *199:10 *424:39 0.000282867
58 *200:10 *424:31 6.40114e-05
59 *200:10 *424:33 6.53824e-05
60 *372:28 *424:29 0
61 *375:74 *424:19 0
62 *375:74 *424:21 0
63 *375:74 *424:29 0
64 *378:10 *424:29 0
65 *378:10 *424:31 0
66 *378:12 *424:31 0
67 *378:71 *424:19 8.77606e-06
68 *378:71 *424:21 6.23601e-05
69 *378:71 *424:29 0.00010735
70 *378:80 *424:19 1.51772e-05
*RES
1 *9554:Z *424:8 6.788 
2 *424:8 *9335:A2 5.852 
3 *424:8 *424:19 8.556 
4 *424:19 *424:21 2.392 
5 *424:21 *424:29 20.28 
6 *424:29 *424:31 57.2 
7 *424:31 *424:33 4.68 
8 *424:33 *424:39 8.036 
9 *424:39 *9323:A2 5.436 
10 *424:39 *9315:A2 20.156 
11 *424:33 *9319:A2 10.56 
12 *424:31 *9327:A2 9 
13 *424:21 *9331:A2 9.312 
14 *424:19 *9339:A2 9.312 
*END

*D_NET *425 0.0604623
*CONN
*I *9168:A2 I *D gf180mcu_fd_sc_mcu7t5v0__nand2_1
*I *9164:A2 I *D gf180mcu_fd_sc_mcu7t5v0__nand2_1
*I *9160:A2 I *D gf180mcu_fd_sc_mcu7t5v0__nand2_1
*I *9152:A2 I *D gf180mcu_fd_sc_mcu7t5v0__nand2_1
*I *9148:A2 I *D gf180mcu_fd_sc_mcu7t5v0__nand2_1
*I *9156:A2 I *D gf180mcu_fd_sc_mcu7t5v0__nand2_1
*I *9555:Z O *D gf180mcu_fd_sc_mcu7t5v0__clkbuf_4
*CAP
1 *9168:A2 0
2 *9164:A2 7.03799e-05
3 *9160:A2 4.63956e-05
4 *9152:A2 0.000419966
5 *9148:A2 0.000411133
6 *9156:A2 3.02168e-05
7 *9555:Z 0.00017549
8 *425:53 0.000941255
9 *425:42 0.000584752
10 *425:32 0.00207099
11 *425:26 0.00202499
12 *425:18 0.000572431
13 *425:10 0.00394168
14 *425:8 0.00391914
15 *9148:A2 *9148:A1 7.9929e-05
16 *9148:A2 *9156:A1 0
17 *9152:A2 *9152:A1 0.000168211
18 *9156:A2 *9156:A1 0
19 *9160:A2 *9160:A1 3.82231e-05
20 *9164:A2 *9164:A1 0.00017298
21 *425:8 *9172:A2 6.8199e-07
22 *425:8 *9555:I 2.01254e-05
23 *425:18 *9168:A1 0.000116476
24 *425:26 *442:10 0.00127248
25 *425:32 *9164:A1 0.000492457
26 *425:32 *442:10 0.000315187
27 *9149:A2 *9148:A2 0.000273397
28 *9157:A2 *9152:A2 0
29 *9157:A2 *9156:A2 0.000113016
30 *9157:A2 *425:42 0.000169324
31 *9161:A2 *425:42 0.000512649
32 *9162:I0 *9148:A2 0.000201346
33 *9162:I0 *425:42 0.000185538
34 *9162:I0 *425:53 0.000170235
35 *9166:I0 *425:32 0.00486051
36 *9169:A2 *425:10 0.000187202
37 *9169:A2 *425:18 1.8209e-05
38 *9170:I0 *425:26 0.0034075
39 *9173:A2 *425:8 8.16884e-06
40 *9173:A2 *425:10 0.000180936
41 *216:10 *425:42 0.00103893
42 *217:14 *425:26 0.000632886
43 *218:10 *425:26 0.00258037
44 *379:50 *425:10 0.00195103
45 *379:52 *425:10 0.0239716
46 *379:52 *425:18 5.469e-05
47 *379:73 *425:32 0.000623959
48 *379:73 *425:42 7.93047e-05
49 *409:10 *425:32 0.000236267
50 *409:12 *9148:A2 0.000292274
51 *409:12 *425:32 0.000227004
52 *409:12 *425:42 0.000348053
53 *409:12 *425:53 0.000252289
54 *413:28 *425:10 0
55 *413:28 *425:18 0
*RES
1 *9555:Z *425:8 10.144 
2 *425:8 *425:10 65 
3 *425:10 *425:18 6.06 
4 *425:18 *425:26 24.6 
5 *425:26 *425:32 29.668 
6 *425:32 *425:42 10.948 
7 *425:42 *9156:A2 4.812 
8 *425:42 *425:53 6.06 
9 *425:53 *9148:A2 13.992 
10 *425:53 *9152:A2 11.704 
11 *425:32 *9160:A2 9.312 
12 *425:26 *9164:A2 5.02 
13 *425:18 *9168:A2 4.5 
*END

*D_NET *426 0.0422312
*CONN
*I *9555:I I *D gf180mcu_fd_sc_mcu7t5v0__clkbuf_4
*I *9172:A2 I *D gf180mcu_fd_sc_mcu7t5v0__nand2_1
*I *9176:A2 I *D gf180mcu_fd_sc_mcu7t5v0__nand2_1
*I *9556:Z O *D gf180mcu_fd_sc_mcu7t5v0__buf_4
*CAP
1 *9555:I 0.00019287
2 *9172:A2 0.000402755
3 *9176:A2 0
4 *9556:Z 0.000515466
5 *426:29 0.00152868
6 *426:16 0.000933051
7 *426:14 0.0156029
8 *426:12 0.0161184
9 *9172:A2 *9172:A1 0.00048361
10 *426:12 *9558:I 3.18511e-05
11 *426:12 *9632:D[7] 0.00198834
12 *426:12 *517:20 0.0010504
13 *9173:A2 *9172:A2 0
14 *9241:B2 *426:12 1.42672e-05
15 *9663:I *426:12 0.000174402
16 *367:29 *426:12 0.000435777
17 *379:46 *426:29 0
18 *379:50 *9172:A2 0
19 *379:50 *426:29 0.00252981
20 *401:20 *426:12 0
21 *413:14 *426:29 0.000207779
22 *425:8 *9172:A2 6.8199e-07
23 *425:8 *9555:I 2.01254e-05
*RES
1 *9556:Z *426:12 20.988 
2 *426:12 *426:14 143.416 
3 *426:14 *426:16 4.5 
4 *426:16 *9176:A2 9 
5 *426:16 *426:29 14.9 
6 *426:29 *9172:A2 16.828 
7 *426:29 *9555:I 5.852 
*END

*D_NET *427 0.0140427
*CONN
*I *9235:A2 I *D gf180mcu_fd_sc_mcu7t5v0__nor2_1
*I *9236:A2 I *D gf180mcu_fd_sc_mcu7t5v0__nor3_1
*I *9481:Z O *D gf180mcu_fd_sc_mcu7t5v0__dlyd_1
*CAP
1 *9235:A2 0.000670952
2 *9236:A2 0.000940915
3 *9481:Z 0
4 *427:4 0.00161187
5 *9235:A2 *9235:A1 0.000138265
6 *9235:A2 *9250:A2 2.9602e-06
7 *9235:A2 *9269:A1 0.000252422
8 *9235:A2 *9282:A1 3.04322e-05
9 *9235:A2 *9282:A2 0.00120354
10 *9235:A2 *438:125 7.93889e-05
11 *9235:A2 *512:94 4.41356e-05
12 *9236:A2 *9134:A1 0.000389764
13 *9236:A2 *530:22 0.00011485
14 tl_o[4] *9236:A2 0.000158763
15 tl_o[64] *9235:A2 0.000844438
16 *9241:B1 *9236:A2 7.95519e-06
17 *9249:A2 *9235:A2 0.000777336
18 *9250:B *9236:A2 0.00221754
19 *9255:A2 *9235:A2 7.67463e-06
20 *9255:A2 *9236:A2 0.000286498
21 *9262:A2 *9235:A2 2.31017e-06
22 *9262:A2 *9236:A2 5.27339e-05
23 *9263:A1 *9235:A2 0.000665861
24 *9388:A2 *9235:A2 0.000106908
25 *9393:S *9235:A2 2.92613e-05
26 *9395:A2 *9236:A2 0.000353403
27 *9450:CLK *9236:A2 1.91996e-05
28 *9544:I *9236:A2 7.87395e-06
29 *128:26 *9236:A2 0.00065147
30 *369:45 *9236:A2 0.000229513
31 *371:18 *9236:A2 0.00116908
32 *375:92 *9236:A2 0.000135331
33 *380:57 *9236:A2 0.000840017
*RES
1 *9481:Z *427:4 4.5 
2 *427:4 *9236:A2 28.476 
3 *427:4 *9235:A2 22.34 
*END

*D_NET *428 0.0159047
*CONN
*I *9557:I I *D gf180mcu_fd_sc_mcu7t5v0__buf_4
*I *9642:I I *D gf180mcu_fd_sc_mcu7t5v0__buf_4
*I *9359:A2 I *D gf180mcu_fd_sc_mcu7t5v0__nand2_1
*I *9351:A2 I *D gf180mcu_fd_sc_mcu7t5v0__nand2_1
*I *9355:A2 I *D gf180mcu_fd_sc_mcu7t5v0__nand2_1
*I *9347:A2 I *D gf180mcu_fd_sc_mcu7t5v0__nand2_1
*I *9471:Z O *D gf180mcu_fd_sc_mcu7t5v0__dlyd_1
*CAP
1 *9557:I 0
2 *9642:I 0.00271138
3 *9359:A2 0
4 *9351:A2 0.000160108
5 *9355:A2 8.93106e-05
6 *9347:A2 0.000807439
7 *9471:Z 0.000377211
8 *428:53 0.002965
9 *428:27 0.000488993
10 *428:12 0.00124995
11 *428:10 0.000456543
12 *428:8 0.000377211
13 *9347:A2 *9185:A1 0.000833343
14 *9347:A2 *431:12 0.000102494
15 *9347:A2 *448:49 1.24769e-06
16 *9351:A2 *9351:A1 3.4596e-05
17 *9642:I *470:12 0.00199871
18 *428:8 *9351:A1 8.21146e-06
19 *428:8 *431:12 6.41721e-05
20 *428:8 *470:12 0.000281331
21 *428:12 *431:12 1.29841e-05
22 *428:27 *9351:A1 0.000193782
23 *428:53 *470:12 0.000281805
24 *9352:A1 *9347:A2 3.80819e-05
25 *9352:A2 *9355:A2 7.93961e-05
26 *9353:I0 *9355:A2 0
27 *9356:A1 *9347:A2 0.000395772
28 *9356:A2 *9355:A2 1.12327e-05
29 *9356:A2 *428:27 6.43437e-05
30 *9360:A1 *428:8 0
31 *9360:A2 *428:53 0.000542895
32 *9411:CLK *9347:A2 0
33 *9411:CLK *9351:A2 1.32185e-05
34 *9411:CLK *9355:A2 0.000121503
35 *9411:CLK *428:27 0.000410048
36 *205:12 *9347:A2 5.01937e-05
37 *207:12 *9347:A2 0.000682174
38 *208:10 *9351:A2 0
*RES
1 *9471:Z *428:8 7.412 
2 *428:8 *428:10 4.5 
3 *428:10 *428:12 1.56 
4 *428:12 *9347:A2 17.84 
5 *428:12 *428:27 11.6 
6 *428:27 *9355:A2 9.832 
7 *428:27 *9351:A2 10.04 
8 *428:10 *428:53 3.744 
9 *428:53 *9359:A2 9 
10 *428:53 *9642:I 41.76 
11 *428:8 *9557:I 4.5 
*END

*D_NET *429 0.0260628
*CONN
*I *9205:A2 I *D gf180mcu_fd_sc_mcu7t5v0__nand2_1
*I *9209:A2 I *D gf180mcu_fd_sc_mcu7t5v0__nand2_1
*I *9201:A2 I *D gf180mcu_fd_sc_mcu7t5v0__nand2_1
*I *9197:A2 I *D gf180mcu_fd_sc_mcu7t5v0__nand2_1
*I *9189:A2 I *D gf180mcu_fd_sc_mcu7t5v0__nand2_1
*I *9193:A2 I *D gf180mcu_fd_sc_mcu7t5v0__nand2_1
*I *9641:Z O *D gf180mcu_fd_sc_mcu7t5v0__buf_4
*CAP
1 *9205:A2 0
2 *9209:A2 0.000451448
3 *9201:A2 4.32082e-05
4 *9197:A2 0
5 *9189:A2 0.000765865
6 *9193:A2 0
7 *9641:Z 0.000480925
8 *429:68 0.000633662
9 *429:53 0.00104457
10 *429:40 0.00372436
11 *429:14 0.00137979
12 *429:6 0.00400006
13 *9189:A2 *9189:A1 0.000292328
14 *9189:A2 *9193:A1 0.000109609
15 *9209:A2 *9205:A1 3.4596e-05
16 *429:6 *9191:I1 0.000106926
17 *429:68 *9205:A1 0.00017298
18 *9191:I0 *9189:A2 0.00385005
19 *9191:I0 *429:14 0.00224547
20 *9194:A1 *9189:A2 0
21 *9195:I0 *429:14 0.000291973
22 *9199:I0 *9209:A2 0.000585299
23 *9202:A2 *9201:A2 1.40331e-05
24 *9202:A2 *429:53 0.000106745
25 *9202:A2 *429:68 1.36398e-06
26 *9210:A2 *9209:A2 0.000171079
27 *9429:CLK *9209:A2 6.29451e-05
28 *9429:CLK *429:68 0.00019118
29 *9430:D *429:68 3.21839e-05
30 *9430:CLK *9201:A2 2.38773e-05
31 *9430:CLK *429:53 0.000105333
32 *9431:CLK *9209:A2 4.18042e-05
33 *9431:CLK *429:68 2.14739e-05
34 *9550:I *429:6 0.00025082
35 *9550:I *429:40 7.6402e-05
36 *223:12 *9189:A2 8.55595e-05
37 *226:12 *9209:A2 2.14739e-05
38 *381:118 *9189:A2 0.0001154
39 *381:127 *9189:A2 0.00323387
40 *381:136 *429:14 0.000120132
41 *381:136 *429:40 0
42 *381:136 *429:53 0
43 *381:145 *429:53 0
44 *381:156 *429:53 0
45 *381:156 *429:68 0.000597045
46 *415:23 *9209:A2 0.000576993
*RES
1 *9641:Z *429:6 7.932 
2 *429:6 *429:14 16.8 
3 *429:14 *9193:A2 4.5 
4 *429:14 *9189:A2 28.268 
5 *429:6 *429:40 29.46 
6 *429:40 *9197:A2 9 
7 *429:40 *429:53 11.364 
8 *429:53 *9201:A2 4.812 
9 *429:53 *429:68 11.496 
10 *429:68 *9209:A2 17.972 
11 *429:68 *9205:A2 4.5 
*END

*D_NET *430 0.0867873
*CONN
*I *9143:A2 I *D gf180mcu_fd_sc_mcu7t5v0__nand2_1
*I *9367:A2 I *D gf180mcu_fd_sc_mcu7t5v0__nand2_1
*I *9371:A2 I *D gf180mcu_fd_sc_mcu7t5v0__nand2_1
*I *9363:A2 I *D gf180mcu_fd_sc_mcu7t5v0__nand2_1
*I *9641:I I *D gf180mcu_fd_sc_mcu7t5v0__buf_4
*I *9642:Z O *D gf180mcu_fd_sc_mcu7t5v0__buf_4
*CAP
1 *9143:A2 0.000157372
2 *9367:A2 0
3 *9371:A2 3.02025e-05
4 *9363:A2 3.02025e-05
5 *9641:I 0.000276092
6 *9642:Z 0.00278602
7 *430:49 0.000507662
8 *430:36 0.000903735
9 *430:14 0.00814721
10 *430:12 0.00787112
11 *430:10 0.00333946
12 *9363:A2 *9363:A1 0.000113027
13 *9371:A2 *9371:A1 0.000113027
14 *430:10 *462:12 0
15 *430:36 *462:12 0.00016721
16 *9145:I0 *9143:A2 0.000112969
17 *9145:I0 *430:49 1.89425e-05
18 *9364:A1 *430:36 0
19 *9364:A1 *430:49 0
20 *9365:I0 *430:10 0.000308268
21 *9369:I0 *430:10 0.00185199
22 *9369:I0 *430:36 0.000823029
23 *9372:A1 *9143:A2 0.000495329
24 *9372:A1 *430:49 7.55008e-05
25 *210:10 *430:36 0.00023775
26 *210:10 *430:49 0.000368355
27 *212:12 *9143:A2 0.000410477
28 *417:12 *430:14 0.0576423
*RES
1 *9642:Z *430:10 36.456 
2 *430:10 *430:12 4.5 
3 *430:12 *430:14 143 
4 *430:14 *9641:I 15.892 
5 *430:10 *9363:A2 9.312 
6 *430:10 *430:36 6.968 
7 *430:36 *9371:A2 9.312 
8 *430:36 *430:49 3.12 
9 *430:49 *9367:A2 9 
10 *430:49 *9143:A2 13.264 
*END

*D_NET *431 0.0590578
*CONN
*I *9185:A2 I *D gf180mcu_fd_sc_mcu7t5v0__nand2_1
*I *9181:A2 I *D gf180mcu_fd_sc_mcu7t5v0__nand2_1
*I *9557:Z O *D gf180mcu_fd_sc_mcu7t5v0__buf_4
*CAP
1 *9185:A2 0
2 *9181:A2 0.00119473
3 *9557:Z 0.000807728
4 *431:24 0.00316184
5 *431:22 0.00243678
6 *431:12 0.00127739
7 *9181:A2 *9181:A1 0.000147829
8 *9181:A2 *439:37 0.00379353
9 *9181:A2 *559:14 0.000376958
10 *431:24 *9184:A1 6.98794e-05
11 *431:24 *439:18 0.00406804
12 *431:24 *439:35 0.00184912
13 *431:24 *559:14 0.0124625
14 *431:24 *559:18 0.00123404
15 *431:24 *687:18 0.000147014
16 *9186:A2 *431:12 0.000686436
17 *9253:A1 *431:22 0.000604385
18 *9347:A2 *431:12 0.000102494
19 *9356:A1 *431:12 0.000186638
20 *9654:I *431:12 0
21 *278:10 *431:24 0.000118984
22 *281:16 *431:24 0.00117734
23 *368:37 *431:22 0.00588962
24 *369:45 *431:22 0.0141513
25 *371:26 *431:12 0.000131256
26 *381:44 *431:24 1.79606e-05
27 *412:43 *431:24 0.0028869
28 *428:8 *431:12 6.41721e-05
29 *428:12 *431:12 1.29841e-05
*RES
1 *9557:Z *431:12 17.216 
2 *431:12 *431:22 26.5962 
3 *431:22 *431:24 59.6626 
4 *431:24 *9181:A2 35.236 
5 *431:12 *9185:A2 9 
*END

*D_NET *432 0.0146651
*CONN
*I *9559:I I *D gf180mcu_fd_sc_mcu7t5v0__buf_3
*I *9558:I I *D gf180mcu_fd_sc_mcu7t5v0__clkbuf_4
*I *9342:A2 I *D gf180mcu_fd_sc_mcu7t5v0__nand3_1
*I *9472:Z O *D gf180mcu_fd_sc_mcu7t5v0__dlyd_1
*CAP
1 *9559:I 0.000112983
2 *9558:I 0.000169538
3 *9342:A2 0.000255581
4 *9472:Z 0
5 *432:17 0.000564799
6 *432:6 0.000537858
7 *9342:A2 *9342:A1 0.000127001
8 *9342:A2 *463:8 0.000368231
9 *432:17 *9342:A1 0.000394726
10 *9470:I *9559:I 0.000441747
11 *9470:I *432:17 0.00196994
12 *9655:I *9342:A2 0.000138032
13 *9655:I *432:17 0.000362356
14 *367:12 *9342:A2 0.00300149
15 *396:18 *9342:A2 0.00218464
16 *396:18 *9559:I 0.000417612
17 *396:18 *432:17 0.00358206
18 *422:85 *9559:I 4.67771e-06
19 *426:12 *9558:I 3.18511e-05
*RES
1 *9472:Z *432:6 9 
2 *432:6 *9342:A2 18.256 
3 *432:6 *432:17 9.464 
4 *432:17 *9558:I 10.144 
5 *432:17 *9559:I 10.872 
*END

*D_NET *433 0.0720007
*CONN
*I *9338:A2 I *D gf180mcu_fd_sc_mcu7t5v0__nand3_1
*I *9334:A2 I *D gf180mcu_fd_sc_mcu7t5v0__nand3_1
*I *9330:A2 I *D gf180mcu_fd_sc_mcu7t5v0__nand3_1
*I *9326:A2 I *D gf180mcu_fd_sc_mcu7t5v0__nand3_1
*I *9322:A2 I *D gf180mcu_fd_sc_mcu7t5v0__nand3_1
*I *9314:A2 I *D gf180mcu_fd_sc_mcu7t5v0__nand3_1
*I *9318:A2 I *D gf180mcu_fd_sc_mcu7t5v0__nand3_1
*I *9558:Z O *D gf180mcu_fd_sc_mcu7t5v0__clkbuf_4
*CAP
1 *9338:A2 0
2 *9334:A2 0
3 *9330:A2 8.8634e-05
4 *9326:A2 0
5 *9322:A2 0
6 *9314:A2 0.000171123
7 *9318:A2 0
8 *9558:Z 0.00046752
9 *433:24 0.000239296
10 *433:20 0.000338278
11 *433:18 0.00311646
12 *433:16 0.00323912
13 *433:12 0.000368078
14 *433:10 0.000531466
15 *9314:A2 *9318:A1 5.77511e-05
16 *9314:A2 *9322:A1 0.0019334
17 *9330:A2 *9330:A1 8.01631e-05
18 *433:10 *9342:A1 0.000690312
19 *433:10 *9394:A1 0.00257107
20 *433:10 *461:8 0.00192753
21 *433:10 *604:23 0.00271465
22 *433:12 *461:8 0.000101151
23 *433:18 *465:8 0.001117
24 *433:18 *469:8 0
25 *9238:A2 *433:10 0.00200372
26 *9314:A3 *9314:A2 0.0017814
27 *9314:A3 *433:24 0.000188241
28 *9320:A1 *9314:A2 0.00017298
29 *9320:A1 *433:20 0.000810085
30 *9320:A1 *433:24 0.000107711
31 *9330:A3 *9330:A2 8.01631e-05
32 *9447:D *433:10 0.00124761
33 *9653:I *433:10 0.00148792
34 *9661:I *433:18 0.00167428
35 *9663:I *433:10 0.000197097
36 *9663:I *433:16 0.000267011
37 *9663:I *433:18 0.00072123
38 *332:29 *433:10 0.000198172
39 *332:29 *433:12 0.000199998
40 *332:35 *433:12 0.000179413
41 *332:43 *433:12 0.00028351
42 *332:43 *433:16 0.00205723
43 *332:45 *433:16 0.00019118
44 *332:45 *433:18 0.0299667
45 *332:47 *433:18 0.000197059
46 *332:47 *433:20 0.0038171
47 *332:49 *433:20 0.000197059
48 *332:49 *433:24 0.000417612
49 *367:12 *433:10 7.48872e-05
50 *367:12 *433:12 4.73563e-05
51 *367:12 *433:16 0.00155834
52 *367:12 *433:18 0.00160247
53 *372:53 *433:10 0.000520108
*RES
1 *9558:Z *433:10 28.552 
2 *433:10 *433:12 1.56 
3 *433:12 *433:16 10.608 
4 *433:16 *433:18 75.608 
5 *433:18 *433:20 10.088 
6 *433:20 *433:24 6.06 
7 *433:24 *9318:A2 4.5 
8 *433:24 *9314:A2 19.116 
9 *433:20 *9322:A2 9 
10 *433:18 *9326:A2 9 
11 *433:16 *9330:A2 9.728 
12 *433:12 *9334:A2 9 
13 *433:10 *9338:A2 9 
*END

*D_NET *434 0.080063
*CONN
*I *9167:A2 I *D gf180mcu_fd_sc_mcu7t5v0__nand3_1
*I *9163:A2 I *D gf180mcu_fd_sc_mcu7t5v0__nand3_1
*I *9155:A2 I *D gf180mcu_fd_sc_mcu7t5v0__nand3_1
*I *9151:A2 I *D gf180mcu_fd_sc_mcu7t5v0__nand3_1
*I *9147:A2 I *D gf180mcu_fd_sc_mcu7t5v0__nand3_1
*I *9159:A2 I *D gf180mcu_fd_sc_mcu7t5v0__nand3_1
*I *9171:A2 I *D gf180mcu_fd_sc_mcu7t5v0__nand3_1
*I *9643:Z O *D gf180mcu_fd_sc_mcu7t5v0__clkbuf_4
*CAP
1 *9167:A2 0
2 *9163:A2 4.59105e-05
3 *9155:A2 0
4 *9151:A2 0
5 *9147:A2 0.000393606
6 *9159:A2 0
7 *9171:A2 2.75419e-05
8 *9643:Z 0.000179719
9 *434:50 0.000512894
10 *434:46 0.000433171
11 *434:35 0.000359997
12 *434:31 0.00176807
13 *434:29 0.00249614
14 *434:25 0.000993454
15 *434:12 0.000472441
16 *9147:A2 *9634:D[1] 0.000176597
17 *9171:A2 *9171:A1 4.41346e-05
18 *434:12 *9643:I 0
19 *434:12 *443:41 0.00241713
20 *434:25 *9171:A1 3.59979e-05
21 *434:25 *443:41 0.00112217
22 *434:46 *9159:A1 4.18042e-05
23 *9147:A3 *9147:A2 0.00033473
24 *9147:A3 *434:50 8.59425e-06
25 *9161:A1 *434:35 0.000105621
26 *9161:A1 *434:46 0.000150699
27 *9165:A1 *9163:A2 0.000106926
28 *9165:A1 *434:31 0.00950615
29 *261:24 *434:12 0.0010303
30 *261:35 *9171:A2 3.6012e-05
31 *261:35 *434:25 0.0134365
32 *261:35 *434:29 0.000167045
33 *261:39 *434:29 0.00639007
34 *261:39 *434:31 7.14691e-05
35 *261:41 *434:31 0.0188153
36 *261:41 *434:46 6.17392e-05
37 *261:43 *434:46 0.00124167
38 *261:58 *434:46 0.000241749
39 *261:58 *434:50 0.000939953
40 *330:35 *434:25 0.0107628
41 *330:35 *434:29 0.00287541
42 *330:46 *9147:A2 0.00022888
43 *330:46 *434:46 0.00142161
44 *330:46 *434:50 0.000480456
45 *413:18 *434:12 4.94991e-05
46 *413:26 *434:25 7.89888e-05
47 *413:28 *434:25 0
48 *413:28 *434:29 0
49 *413:28 *434:31 0
*RES
1 *9643:Z *434:12 20.572 
2 *434:12 *9171:A2 4.812 
3 *434:12 *434:25 38.612 
4 *434:25 *434:29 17.056 
5 *434:29 *434:31 49.816 
6 *434:31 *434:35 4.812 
7 *434:35 *9159:A2 4.5 
8 *434:35 *434:46 13.86 
9 *434:46 *434:50 3.328 
10 *434:50 *9147:A2 14.2 
11 *434:50 *9151:A2 9 
12 *434:46 *9155:A2 9 
13 *434:29 *9163:A2 9.312 
14 *434:25 *9167:A2 9 
*END

*D_NET *435 0.0433575
*CONN
*I *9175:A2 I *D gf180mcu_fd_sc_mcu7t5v0__nand3_1
*I *9643:I I *D gf180mcu_fd_sc_mcu7t5v0__clkbuf_4
*I *9559:Z O *D gf180mcu_fd_sc_mcu7t5v0__buf_3
*CAP
1 *9175:A2 0
2 *9643:I 0.000416244
3 *9559:Z 0.000749897
4 *435:14 0.00123974
5 *435:10 0.017282
6 *435:8 0.0172084
7 *9643:I *443:22 5.70264e-05
8 *9643:I *443:41 0.000818411
9 *9643:I *557:10 0.000133832
10 *435:8 *9213:A1 0.000285688
11 *435:8 *441:57 0
12 *435:10 *441:57 0.00336591
13 *9300:A2 *435:14 0.000466875
14 *261:18 *9643:I 0
15 *261:18 *435:14 0
16 *330:10 *9643:I 0.000704299
17 *330:10 *435:14 0.000629226
18 *434:12 *9643:I 0
*RES
1 *9559:Z *435:8 9.804 
2 *435:8 *435:10 144.144 
3 *435:10 *435:14 15.212 
4 *435:14 *9643:I 14.408 
5 *435:14 *9175:A2 9 
*END

*D_NET *436 0.00516612
*CONN
*I *9561:I I *D gf180mcu_fd_sc_mcu7t5v0__buf_3
*I *9560:I I *D gf180mcu_fd_sc_mcu7t5v0__clkbuf_4
*I *9346:A2 I *D gf180mcu_fd_sc_mcu7t5v0__nand3_1
*I *9473:Z O *D gf180mcu_fd_sc_mcu7t5v0__dlyd_1
*CAP
1 *9561:I 0.000148077
2 *9560:I 0
3 *9346:A2 1.00529e-05
4 *9473:Z 0
5 *436:10 0.000323208
6 *436:4 0.000461232
7 *9346:A2 *439:16 0.000167621
8 *436:10 *440:10 0
9 *9348:A1 *436:10 0
10 *258:20 *9346:A2 0.000208806
11 *258:29 *9346:A2 0.00140813
12 *258:29 *436:10 0.000543548
13 *371:26 *9346:A2 0.00161694
14 *371:26 *436:10 0.000278502
*RES
1 *9473:Z *436:4 4.5 
2 *436:4 *436:10 7.204 
3 *436:10 *9346:A2 13.056 
4 *436:10 *9560:I 9 
5 *436:4 *9561:I 5.54 
*END

*D_NET *437 0.0615664
*CONN
*I *9208:A2 I *D gf180mcu_fd_sc_mcu7t5v0__nand3_1
*I *9204:A2 I *D gf180mcu_fd_sc_mcu7t5v0__nand3_1
*I *9200:A2 I *D gf180mcu_fd_sc_mcu7t5v0__nand3_1
*I *9196:A2 I *D gf180mcu_fd_sc_mcu7t5v0__nand3_1
*I *9192:A2 I *D gf180mcu_fd_sc_mcu7t5v0__nand3_1
*I *9188:A2 I *D gf180mcu_fd_sc_mcu7t5v0__nand3_1
*I *9644:Z O *D gf180mcu_fd_sc_mcu7t5v0__clkbuf_4
*CAP
1 *9208:A2 0.000182889
2 *9204:A2 0.000109443
3 *9200:A2 0
4 *9196:A2 0.000119007
5 *9192:A2 0
6 *9188:A2 0
7 *9644:Z 0.00268204
8 *437:52 0.000476349
9 *437:41 0.000725445
10 *437:30 0.00224917
11 *437:21 0.00167546
12 *437:12 0.00276876
13 *437:12 *9188:A1 0.00838519
14 *437:12 *9192:A1 5.469e-05
15 *437:21 *9192:A1 0.00665764
16 *437:52 *9200:A1 0.000609567
17 *9196:A3 *9196:A2 5.64338e-05
18 *9204:A3 *9204:A2 6.062e-05
19 *9206:A1 *9204:A2 3.26853e-05
20 *9208:A3 *9204:A2 2.63994e-05
21 *9208:A3 *9208:A2 0.000669232
22 *9208:A3 *437:52 0.000191975
23 *9210:A1 *9208:A2 3.52832e-05
24 *278:43 *437:21 0.0001154
25 *278:52 *437:21 0.00657412
26 *278:52 *437:30 0.000250567
27 *278:61 *437:30 0.0211685
28 *278:61 *437:41 0.000158227
29 *278:65 *9196:A2 6.88177e-05
30 *278:69 *437:41 0.0013014
31 *278:84 *437:41 0.000106449
32 *278:84 *437:52 7.29199e-05
33 *331:52 *9208:A2 0.000371414
34 *331:52 *437:21 2.84715e-05
35 *331:52 *437:30 0.00354396
36 *331:52 *437:41 1.99013e-05
37 *331:52 *437:52 1.79889e-05
*RES
1 *9644:Z *437:12 40.72 
2 *437:12 *9188:A2 9 
3 *437:12 *437:21 17.16 
4 *437:21 *9192:A2 9 
5 *437:21 *437:30 53.768 
6 *437:30 *9196:A2 9.936 
7 *437:30 *437:41 8.632 
8 *437:41 *9200:A2 9 
9 *437:41 *437:52 2.704 
10 *437:52 *9204:A2 9.728 
11 *437:52 *9208:A2 13.68 
*END

*D_NET *438 0.107973
*CONN
*I *9250:A1 I *D gf180mcu_fd_sc_mcu7t5v0__oai31_1
*I *9282:A1 I *D gf180mcu_fd_sc_mcu7t5v0__nor3_2
*I *9235:A1 I *D gf180mcu_fd_sc_mcu7t5v0__nor2_1
*I *9237:A2 I *D gf180mcu_fd_sc_mcu7t5v0__nor3_1
*I *9302:A1 I *D gf180mcu_fd_sc_mcu7t5v0__nor3_4
*I *9292:A1 I *D gf180mcu_fd_sc_mcu7t5v0__nor3_4
*I *9236:A1 I *D gf180mcu_fd_sc_mcu7t5v0__nor3_1
*I *9272:A1 I *D gf180mcu_fd_sc_mcu7t5v0__nor3_2
*I *9482:Z O *D gf180mcu_fd_sc_mcu7t5v0__clkbuf_2
*CAP
1 *9250:A1 0
2 *9282:A1 0.00105111
3 *9235:A1 0.000523651
4 *9237:A2 4.1888e-05
5 *9302:A1 0.000104325
6 *9292:A1 0.00290235
7 *9236:A1 0
8 *9272:A1 8.47359e-05
9 *9482:Z 0.00220363
10 *438:125 0.00184742
11 *438:119 0.000546696
12 *438:82 0.00306189
13 *438:78 0.00373836
14 *438:76 0.00381433
15 *438:74 0.00730707
16 *438:72 0.00917503
17 *438:56 0.00360173
18 *438:33 0.00248251
19 *438:29 0.00267409
20 *438:12 0.0037666
21 *9237:A2 *648:34 0
22 *9282:A1 *9221:A1 0.000522013
23 *9282:A1 *9252:A1 1.23618e-05
24 *9282:A1 *9282:A2 0.0019125
25 *9282:A1 *9346:A1 0
26 *9282:A1 *9389:I1 0.000723231
27 *9282:A1 *473:24 0.000440509
28 *9292:A1 *9292:A2 0
29 *9292:A1 *453:14 0
30 *9302:A1 *9302:A2 0.000668179
31 *438:12 *9217:A2 3.20915e-05
32 *438:12 *9218:A1 3.22108e-05
33 *438:12 *9218:A2 9.26642e-05
34 *438:12 *9271:A1 3.4021e-05
35 *438:12 *9271:A2 0.000682192
36 *438:12 *9280:A1 0.000417934
37 *438:12 *9339:A1 0
38 *438:12 *449:16 0
39 *438:12 *460:22 1.06825e-05
40 *438:12 *460:30 3.51051e-05
41 *438:12 *607:10 0
42 *438:29 *9271:A2 0.00149475
43 *438:29 *449:32 0.00031493
44 *438:29 *511:23 0.000954172
45 *438:29 *511:31 0.000114888
46 *438:29 *512:32 0.00166819
47 *438:33 *449:38 0.000383916
48 *438:56 *9131:A1 3.3698e-05
49 *438:56 *9231:A2 0.000139238
50 *438:56 *449:38 1.29281e-05
51 *438:56 *449:59 2.47963e-05
52 *438:56 *593:12 4.75296e-05
53 *438:56 *648:34 0.00128539
54 *438:72 *9451:D 3.17817e-05
55 *438:72 *449:59 0
56 *438:72 *449:82 0
57 *438:72 *514:69 1.72201e-05
58 *438:72 *593:12 6.79366e-05
59 *438:72 *648:34 0.000484723
60 *438:74 *449:84 0.00159442
61 *438:74 *652:10 0
62 *438:78 *9292:A2 1.19663e-05
63 *438:78 *449:84 0.0197045
64 *438:82 *9292:A2 0.000107648
65 *438:82 *9302:A2 0.000116476
66 *438:119 *449:32 0.000185852
67 *438:119 *449:116 0.000259473
68 *438:119 *449:129 0.00226033
69 *438:119 *506:20 0.000309364
70 *438:125 *9282:A2 6.50665e-06
71 *438:125 *512:26 0.00084293
72 *438:125 *512:94 0.000297761
73 tl_o[24] *9282:A1 0.000199998
74 tl_o[50] *9235:A1 0.000225746
75 tl_o[50] *9282:A1 4.01384e-05
76 tl_o[60] *438:12 8.54959e-05
77 tl_o[64] *9235:A1 1.57479e-05
78 *9235:A2 *9235:A1 0.000138265
79 *9235:A2 *9282:A1 3.04322e-05
80 *9235:A2 *438:125 7.93889e-05
81 *9237:A1 *438:56 0.000113027
82 *9249:A2 *9235:A1 0.000280933
83 *9250:B *438:119 7.12175e-05
84 *9262:B *438:119 2.24654e-05
85 *9268:I1 *438:72 0
86 *9282:A3 *9282:A1 0.000174815
87 *9292:A3 *9292:A1 0.00177244
88 *9340:A1 *438:12 0.000331272
89 *9341:I0 *438:12 0.000135443
90 *9344:A2 *438:12 0.00104224
91 *9388:A1 *438:119 6.57735e-05
92 *9388:A2 *9282:A1 7.9859e-05
93 *9388:A2 *438:125 8.23267e-05
94 *9399:D *438:74 7.17602e-05
95 *9399:CLK *438:74 0.00156571
96 *9406:D *438:12 6.13659e-05
97 *9473:I *438:125 0.00201791
98 *9574:I *438:12 0
99 *9655:I *438:33 1.77497e-05
100 *9657:I *438:29 0.000614782
101 *9666:I *9282:A1 0.000195022
102 *9666:I *438:119 0.0001815
103 *128:26 *438:33 0.000145717
104 *203:12 *438:12 0.000865665
105 *248:29 *438:29 3.40368e-05
106 *248:29 *438:119 0.00260651
107 *249:12 *438:56 5.78216e-06
108 *299:12 *438:56 0.000100568
109 *299:16 *438:72 8.21146e-06
110 *300:24 *438:29 0.000547422
111 *327:17 *438:72 1.11104e-05
112 *329:12 *9282:A1 0.00022783
113 *365:30 *438:33 2.1412e-05
114 *370:14 *438:33 0.000839875
115 *371:8 *9272:A1 0.000260689
116 *374:6 *438:78 4.15446e-05
117 *374:11 *438:78 0.00109887
118 *375:6 *438:74 0
119 *375:15 *438:74 0
120 *375:19 *438:74 0
121 *375:21 *438:74 0
122 *375:30 *438:74 0
123 *375:74 *438:12 0.000221701
124 *375:74 *438:29 0.00305497
125 *375:92 *9282:A1 0.000696877
126 *380:207 *438:56 5.63044e-06
127 *402:18 *9272:A1 0
128 *402:18 *438:29 8.64348e-05
129 *424:19 *438:12 6.26086e-05
*RES
1 *9482:Z *438:12 29.488 
2 *438:12 *9272:A1 9.728 
3 *438:12 *438:29 25.584 
4 *438:29 *438:33 11.052 
5 *438:33 *9236:A1 13.5 
6 *438:33 *438:56 22 
7 *438:56 *438:72 28.608 
8 *438:72 *438:74 58.24 
9 *438:74 *438:76 0.936 
10 *438:76 *438:78 52.416 
11 *438:78 *438:82 5.02 
12 *438:82 *9292:A1 45.664 
13 *438:82 *9302:A1 10.768 
14 *438:56 *9237:A2 4.812 
15 *438:29 *438:119 12.82 
16 *438:119 *438:125 14.512 
17 *438:125 *9235:A1 8.972 
18 *438:125 *9282:A1 26.916 
19 *438:119 *9250:A1 4.5 
*END

*D_NET *439 0.0846528
*CONN
*I *9180:A2 I *D gf180mcu_fd_sc_mcu7t5v0__nand3_1
*I *9644:I I *D gf180mcu_fd_sc_mcu7t5v0__clkbuf_4
*I *9184:A2 I *D gf180mcu_fd_sc_mcu7t5v0__nand3_1
*I *9560:Z O *D gf180mcu_fd_sc_mcu7t5v0__clkbuf_4
*CAP
1 *9180:A2 6.00643e-05
2 *9644:I 0.00307537
3 *9184:A2 0
4 *9560:Z 0.00106747
5 *439:37 0.00972233
6 *439:35 0.00858606
7 *439:18 0.00552934
8 *439:16 0.00459766
9 *439:16 *9346:A1 0.000361616
10 *439:18 *9179:A2 0.000120869
11 *439:18 *9377:I0 0.000149967
12 *439:18 *460:160 0.000424418
13 *439:18 *651:6 0.000185779
14 *439:18 *687:18 7.01533e-05
15 *439:35 *9183:I1 0.000376784
16 *439:35 *9184:A1 3.54107e-05
17 *9181:A2 *439:37 0.00379353
18 *9182:A1 *439:37 0.00139536
19 *9182:A2 *439:37 0.000126196
20 *9346:A2 *439:16 0.000167621
21 *9638:I *439:18 0.00047774
22 *9664:I *439:16 0.000129577
23 *192:10 *439:35 0.000355644
24 *192:10 *439:37 0.00150241
25 *221:14 *439:37 0.000176826
26 *258:20 *439:16 0.000763218
27 *258:29 *439:16 0.000132089
28 *278:23 *439:35 0.000922166
29 *278:25 *439:37 0.00170775
30 *278:37 *9644:I 0.0146405
31 *368:37 *439:16 0.0132336
32 *370:49 *439:16 0.000632394
33 *372:53 *439:16 0.00224486
34 *377:16 *439:37 0
35 *380:35 *439:16 0.000675403
36 *381:44 *439:35 0.000100826
37 *414:10 *439:35 0.00119465
38 *431:24 *439:18 0.00406804
39 *431:24 *439:35 0.00184912
*RES
1 *9560:Z *439:16 34.4601 
2 *439:16 *439:18 36.0917 
3 *439:18 *9184:A2 13.5 
4 *439:18 *439:35 23.4 
5 *439:35 *439:37 66.5711 
6 *439:37 *9644:I 48.8039 
7 *439:37 *9180:A2 13.8009 
*END

*D_NET *440 0.0545272
*CONN
*I *9370:A2 I *D gf180mcu_fd_sc_mcu7t5v0__nand3_1
*I *9142:A2 I *D gf180mcu_fd_sc_mcu7t5v0__nand3_1
*I *9366:A2 I *D gf180mcu_fd_sc_mcu7t5v0__nand3_1
*I *9362:A2 I *D gf180mcu_fd_sc_mcu7t5v0__nand3_1
*I *9358:A2 I *D gf180mcu_fd_sc_mcu7t5v0__nand3_1
*I *9354:A2 I *D gf180mcu_fd_sc_mcu7t5v0__nand3_1
*I *9350:A2 I *D gf180mcu_fd_sc_mcu7t5v0__nand3_1
*I *9561:Z O *D gf180mcu_fd_sc_mcu7t5v0__buf_3
*CAP
1 *9370:A2 0
2 *9142:A2 0.000433431
3 *9366:A2 0
4 *9362:A2 0
5 *9358:A2 0
6 *9354:A2 0.00016928
7 *9350:A2 0
8 *9561:Z 0.000263951
9 *440:61 0.00052824
10 *440:52 0.000667821
11 *440:43 0.00359271
12 *440:34 0.00336039
13 *440:21 0.000660478
14 *440:10 0.000414453
15 *9142:A2 *9370:A1 0.00146421
16 *440:10 *9350:A1 3.4596e-05
17 *440:10 *9633:D[2] 2.67229e-05
18 *440:21 *9350:A1 4.83967e-05
19 *440:21 *9633:D[2] 2.3005e-05
20 *440:43 *459:12 0
21 *9142:A3 *9142:A2 4.87151e-05
22 *9142:A3 *440:61 0.000155298
23 *9144:A1 *9142:A2 9.76253e-05
24 *9186:A1 *440:21 0.000642655
25 *9186:A1 *440:34 0.000257303
26 *9352:A1 *440:10 0.000330168
27 *9354:A3 *9354:A2 0.000128567
28 *9471:I *9354:A2 8.2087e-05
29 *222:6 *9354:A2 0.000854475
30 *258:53 *440:34 0.00150311
31 *258:62 *440:34 4.87151e-05
32 *258:62 *440:43 0.0277433
33 *258:71 *440:43 0.000167045
34 *258:71 *440:52 0.00369325
35 *258:80 *440:52 0.000155298
36 *258:80 *440:61 0.000459373
37 *368:37 *440:34 0.000252851
38 *370:55 *440:21 0.000257002
39 *370:55 *440:34 0.0018342
40 *370:55 *440:43 0.00412848
41 *436:10 *440:10 0
*RES
1 *9561:Z *440:10 6.684 
2 *440:10 *9350:A2 4.5 
3 *440:10 *440:21 6.788 
4 *440:21 *9354:A2 11.392 
5 *440:21 *440:34 11.232 
6 *440:34 *9358:A2 9 
7 *440:34 *440:43 69.992 
8 *440:43 *9362:A2 9 
9 *440:43 *440:52 9.672 
10 *440:52 *9366:A2 9 
11 *440:52 *440:61 1.56 
12 *440:61 *9142:A2 13.888 
13 *440:61 *9370:A2 9 
*END

*D_NET *441 0.0265961
*CONN
*I *9646:I I *D gf180mcu_fd_sc_mcu7t5v0__buf_4
*I *9345:I1 I *D gf180mcu_fd_sc_mcu7t5v0__mux2_2
*I *9562:I I *D gf180mcu_fd_sc_mcu7t5v0__buf_4
*I *9337:I1 I *D gf180mcu_fd_sc_mcu7t5v0__mux2_2
*I *9474:Z O *D gf180mcu_fd_sc_mcu7t5v0__dlyd_1
*CAP
1 *9646:I 0
2 *9345:I1 0.000209357
3 *9562:I 0.000152025
4 *9337:I1 0.000415473
5 *9474:Z 0
6 *441:57 0.0035709
7 *441:34 0.00455983
8 *441:14 0.00119589
9 *441:6 0.00140796
10 *9337:I1 *444:6 4.47208e-05
11 *9337:I1 *444:18 3.71049e-05
12 *9562:I *444:6 4.05503e-05
13 *441:14 *9592:I 0.00211227
14 *441:34 *9592:I 0.00118741
15 *441:57 *9374:I1 0
16 *441:57 *443:16 0.000376911
17 tl_o[0] *9345:I1 0.000141544
18 tl_o[0] *441:34 2.7516e-05
19 *9130:I *441:34 0.00041022
20 *9395:A2 *441:57 0.000797734
21 *9398:CLK *441:57 0
22 *9435:D *9337:I1 5.59372e-05
23 *9537:I *9345:I1 0.00109255
24 *9537:I *441:57 0.00258535
25 *9549:I *9562:I 2.49012e-05
26 *295:12 *441:14 0.00077427
27 *295:12 *441:34 0.000198816
28 *378:108 *9337:I1 0.000214561
29 *378:108 *9562:I 0.000158617
30 *378:110 *9337:I1 0.000574094
31 *408:25 *9345:I1 5.64752e-05
32 *408:25 *441:57 0.000807242
33 *408:51 *441:34 0
34 *408:60 *9337:I1 0
35 *435:8 *441:57 0
36 *435:10 *441:57 0.00336591
*RES
1 *9474:Z *441:6 9 
2 *441:6 *441:14 12.924 
3 *441:14 *9337:I1 8.66 
4 *441:14 *9562:I 5.852 
5 *441:6 *441:34 13.132 
6 *441:34 *9345:I1 7.516 
7 *441:34 *441:57 49.352 
8 *441:57 *9646:I 4.5 
*END

*D_NET *442 0.0380433
*CONN
*I *9166:I1 I *D gf180mcu_fd_sc_mcu7t5v0__mux2_2
*I *9162:I1 I *D gf180mcu_fd_sc_mcu7t5v0__mux2_2
*I *9158:I1 I *D gf180mcu_fd_sc_mcu7t5v0__mux2_2
*I *9154:I1 I *D gf180mcu_fd_sc_mcu7t5v0__mux2_2
*I *9150:I1 I *D gf180mcu_fd_sc_mcu7t5v0__mux2_2
*I *9170:I1 I *D gf180mcu_fd_sc_mcu7t5v0__mux2_2
*I *9645:Z O *D gf180mcu_fd_sc_mcu7t5v0__clkbuf_4
*CAP
1 *9166:I1 0.000156074
2 *9162:I1 0.000451541
3 *9158:I1 0
4 *9154:I1 0
5 *9150:I1 0.000300541
6 *9170:I1 0
7 *9645:Z 0.000905241
8 *442:33 0.000463214
9 *442:27 0.000312498
10 *442:25 0.00158114
11 *442:23 0.00198836
12 *442:12 0.000852519
13 *442:10 0.00552453
14 *442:8 0.00642977
15 *9150:I1 *9606:I 0
16 *9150:I1 *551:10 4.67771e-06
17 *9150:I1 *552:8 0.00109919
18 *9150:I1 *553:12 0.000115039
19 *442:10 *9164:A1 0.000759705
20 *442:23 *555:8 0.00116023
21 *442:25 *555:8 0.00215404
22 *442:27 *555:8 0.000201673
23 *442:33 *551:10 4.45041e-05
24 *442:33 *552:8 0.000247057
25 *442:33 *555:8 9.03002e-05
26 *9149:A2 *442:25 0.000605719
27 *9150:S *9150:I1 0.000397755
28 *9153:A2 *442:25 0
29 *9157:A1 *442:25 1.76416e-05
30 *9157:A2 *442:25 0.000532799
31 *9158:I0 *442:25 0.000572927
32 *9158:I0 *442:27 5.28381e-05
33 *9158:S *9162:I1 0
34 *9161:A1 *442:23 6.35093e-06
35 *9161:A1 *442:25 0.000425222
36 *9162:I0 *9162:I1 0
37 *9166:I0 *442:10 0.000193358
38 *9170:I0 *442:10 0.000287803
39 *9170:S *442:23 1.6659e-05
40 *215:8 *442:25 2.17484e-05
41 *217:14 *442:10 0.00389545
42 *218:10 *442:10 0.00034165
43 *379:52 *442:10 0.00289622
44 *379:73 *442:10 0.00131399
45 *379:73 *442:23 3.55894e-05
46 *409:29 *9162:I1 0
47 *425:26 *442:10 0.00127248
48 *425:32 *442:10 0.000315187
*RES
1 *9645:Z *442:8 14.304 
2 *442:8 *442:10 74.36 
3 *442:10 *442:12 4.5 
4 *442:12 *9170:I1 4.5 
5 *442:12 *442:23 15.732 
6 *442:23 *442:25 20.072 
7 *442:25 *442:27 1.976 
8 *442:27 *442:33 6.164 
9 *442:33 *9150:I1 17.66 
10 *442:33 *9154:I1 4.5 
11 *442:27 *9158:I1 9 
12 *442:25 *9162:I1 11.6 
13 *442:23 *9166:I1 9.728 
*END

*D_NET *443 0.0767102
*CONN
*I *9174:I1 I *D gf180mcu_fd_sc_mcu7t5v0__mux2_2
*I *9645:I I *D gf180mcu_fd_sc_mcu7t5v0__clkbuf_4
*I *9178:I1 I *D gf180mcu_fd_sc_mcu7t5v0__mux2_2
*I *9646:Z O *D gf180mcu_fd_sc_mcu7t5v0__buf_4
*CAP
1 *9174:I1 0
2 *9645:I 3.70189e-05
3 *9178:I1 0.000161893
4 *9646:Z 0.0020405
5 *443:41 0.000802485
6 *443:22 0.00102042
7 *443:18 0.0287796
8 *443:16 0.0307271
9 *9645:I *9167:A1 0.00145546
10 *443:22 *557:10 3.51644e-05
11 *9174:S *443:41 4.78801e-05
12 *9175:A3 *9178:I1 0
13 *9178:I0 *9178:I1 1.19584e-05
14 *9643:I *443:22 5.70264e-05
15 *9643:I *443:41 0.000818411
16 *261:18 *9178:I1 0
17 *261:24 *443:22 6.16017e-05
18 *261:24 *443:41 0.000401482
19 *261:35 *9645:I 0.00436436
20 *261:35 *443:41 5.71865e-05
21 *330:10 *443:41 0.000664685
22 *330:25 *9645:I 0.0010264
23 *413:18 *443:41 0.000186177
24 *413:26 *443:41 3.71367e-05
25 *434:12 *443:41 0.00241713
26 *434:25 *443:41 0.00112217
27 *441:57 *443:16 0.000376911
*RES
1 *9646:Z *443:16 30.6737 
2 *443:16 *443:18 123.169 
3 *443:18 *443:22 5.228 
4 *443:22 *9178:I1 9.832 
5 *443:22 *443:41 18.54 
6 *443:41 *9645:I 24.42 
7 *443:41 *9174:I1 4.5 
*END

*D_NET *444 0.0317944
*CONN
*I *9333:I1 I *D gf180mcu_fd_sc_mcu7t5v0__mux2_2
*I *9329:I1 I *D gf180mcu_fd_sc_mcu7t5v0__mux2_2
*I *9321:I1 I *D gf180mcu_fd_sc_mcu7t5v0__mux2_2
*I *9325:I1 I *D gf180mcu_fd_sc_mcu7t5v0__mux2_2
*I *9317:I1 I *D gf180mcu_fd_sc_mcu7t5v0__mux2_2
*I *9341:I1 I *D gf180mcu_fd_sc_mcu7t5v0__mux2_2
*I *9562:Z O *D gf180mcu_fd_sc_mcu7t5v0__buf_4
*CAP
1 *9333:I1 0
2 *9329:I1 0.000101028
3 *9321:I1 0.000277428
4 *9325:I1 0.000140779
5 *9317:I1 0.000281458
6 *9341:I1 0.000150437
7 *9562:Z 0.00011952
8 *444:37 0.000730388
9 *444:35 0.000768254
10 *444:33 0.00545174
11 *444:31 0.00766236
12 *444:18 0.00324023
13 *444:6 0.00071499
14 *9317:I1 *9587:I 0.000349843
15 *9321:I1 *9589:I 0
16 *9341:I1 *9594:I 0.000244377
17 *444:18 *9594:I 2.58696e-05
18 *444:31 *9218:A1 0.000835866
19 *444:31 *9277:A1 0.00246391
20 *444:31 *9280:A1 0.000907631
21 *444:31 *9381:I1 0.00117057
22 *444:33 *9590:I 0.000387295
23 *444:37 *9587:I 0.000247495
24 *444:37 *9589:I 0.000201335
25 tl_o[7] *9329:I1 0
26 *9321:I0 *9321:I1 0
27 *9321:S *9321:I1 0.000153099
28 *9321:S *444:35 3.21875e-05
29 *9321:S *444:37 1.29805e-05
30 *9329:I0 *9321:I1 0.000574565
31 *9337:I0 *444:18 6.34017e-05
32 *9337:I1 *444:6 4.47208e-05
33 *9337:I1 *444:18 3.71049e-05
34 *9341:I0 *444:18 0
35 *9341:S *9341:I1 0.00104228
36 *9341:S *444:18 0.000441579
37 *9435:D *444:18 3.84691e-05
38 *9495:I *444:31 0
39 *9496:I *444:31 0.000160181
40 *9549:I *444:6 0.000337769
41 *9562:I *444:6 4.05503e-05
42 *9574:I *444:18 8.56087e-05
43 *393:14 *444:18 0
44 *393:14 *444:31 6.90343e-05
45 *408:51 *444:18 0.000257805
46 *408:60 *444:6 4.97963e-05
47 *408:60 *444:18 5.78603e-05
48 *411:12 *444:18 0.000338356
49 *411:12 *444:31 0
50 *411:14 *444:33 0.00133126
51 *411:16 *444:33 0.000143204
52 *411:16 *444:35 9.77992e-06
*RES
1 *9562:Z *444:6 6.06 
2 *444:6 *444:18 14.408 
3 *444:18 *9341:I1 7.308 
4 *444:18 *444:31 33.1 
5 *444:31 *444:33 52.832 
6 *444:33 *444:35 1.56 
7 *444:35 *444:37 4.056 
8 *444:37 *9317:I1 12.64 
9 *444:37 *9325:I1 9.728 
10 *444:35 *9321:I1 11.808 
11 *444:33 *9329:I1 9.728 
12 *444:6 *9333:I1 4.5 
*END

*D_NET *445 0.0124819
*CONN
*I *9187:I1 I *D gf180mcu_fd_sc_mcu7t5v0__mux2_2
*I *9648:I I *D gf180mcu_fd_sc_mcu7t5v0__buf_4
*I *9563:I I *D gf180mcu_fd_sc_mcu7t5v0__buf_4
*I *9475:Z O *D gf180mcu_fd_sc_mcu7t5v0__dlyd_1
*CAP
1 *9187:I1 0.000365022
2 *9648:I 0.00236432
3 *9563:I 0
4 *9475:Z 0.00087943
5 *445:20 0.00318896
6 *445:14 0.0020691
7 *9187:I1 *9614:I 0.000177649
8 *9187:I1 *9633:D[2] 2.95019e-05
9 *9648:I *9614:I 5.44097e-05
10 *445:14 *9283:A1 0.000233796
11 *445:14 *9347:A1 0.000169622
12 *445:14 *9390:I0 0.000581704
13 *445:14 *472:10 0.000298945
14 *445:20 *9614:I 0.000182689
15 *445:20 *448:20 2.09173e-05
16 *9248:A3 *445:14 0.000244674
17 *9255:A1 *445:14 0.00017298
18 *9357:I0 *9187:I1 0
19 *9357:I0 *445:20 0
20 *9408:CLK *9187:I1 0.000113027
21 *9499:I *445:14 0.00014159
22 *9499:I *445:20 0.000331934
23 *380:25 *9187:I1 0.000434024
24 *412:64 *445:14 0.000253908
25 *412:79 *445:14 0.000123598
26 *418:6 *9187:I1 4.18157e-05
27 *418:35 *9648:I 0
28 *419:14 *445:14 8.33396e-06
29 *419:27 *9648:I 0
30 *419:27 *445:20 0
*RES
1 *9475:Z *445:14 22.132 
2 *445:14 *445:20 11.78 
3 *445:20 *9563:I 9 
4 *445:20 *9648:I 30.736 
5 *445:14 *9187:I1 7.932 
*END

*D_NET *446 0.0519943
*CONN
*I *9203:I1 I *D gf180mcu_fd_sc_mcu7t5v0__mux2_2
*I *9199:I1 I *D gf180mcu_fd_sc_mcu7t5v0__mux2_2
*I *9195:I1 I *D gf180mcu_fd_sc_mcu7t5v0__mux2_2
*I *9191:I1 I *D gf180mcu_fd_sc_mcu7t5v0__mux2_2
*I *9207:I1 I *D gf180mcu_fd_sc_mcu7t5v0__mux2_2
*I *9211:I1 I *D gf180mcu_fd_sc_mcu7t5v0__mux2_2
*I *9647:Z O *D gf180mcu_fd_sc_mcu7t5v0__buf_4
*CAP
1 *9203:I1 0
2 *9199:I1 0.000239099
3 *9195:I1 0
4 *9191:I1 0.00136956
5 *9207:I1 0.00025622
6 *9211:I1 0
7 *9647:Z 0
8 *446:40 0.00179596
9 *446:36 0.000729101
10 *446:34 0.000321724
11 *446:21 0.00117181
12 *446:14 0.00425307
13 *446:6 0.0130197
14 *446:4 0.00942411
15 *9195:I0 *9191:I1 3.22989e-05
16 *9195:S *9191:I1 7.87395e-06
17 *9199:S *9199:I1 8.21146e-06
18 *9203:I0 *446:40 0.00204107
19 *9203:S *9199:I1 0.000332316
20 *9207:I0 *9199:I1 2.73715e-06
21 *9207:S *9199:I1 0
22 *9207:S *9207:I1 1.09477e-05
23 *9211:I0 *446:14 0
24 *9211:S *9199:I1 0
25 *9211:S *9207:I1 3.72971e-05
26 *9211:S *446:14 2.73715e-06
27 *9211:S *446:21 8.19467e-05
28 *9429:D *446:40 0.000438808
29 *384:8 *9191:I1 0.00534102
30 *384:8 *446:40 0.000100567
31 *385:8 *446:34 0.000732222
32 *385:8 *446:36 0.000311
33 *385:8 *446:40 0.00841878
34 *386:8 *446:34 3.61944e-05
35 *388:8 *9207:I1 1.65112e-05
36 *415:23 *446:40 0.00125163
37 *415:34 *446:40 1.06742e-05
38 *415:47 *446:34 3.09755e-05
39 *415:47 *446:36 5.28408e-05
40 *415:47 *446:40 8.35178e-06
41 *429:6 *9191:I1 0.000106926
*RES
1 *9647:Z *446:4 4.5 
2 *446:4 *446:6 64.792 
3 *446:6 *446:14 41.032 
4 *446:14 *9211:I1 4.5 
5 *446:14 *446:21 4.472 
6 *446:21 *9207:I1 6.372 
7 *446:21 *446:34 6.684 
8 *446:34 *446:36 0.936 
9 *446:36 *446:40 26.236 
10 *446:40 *9191:I1 29.204 
11 *446:40 *9195:I1 4.5 
12 *446:36 *9199:I1 11.184 
13 *446:34 *9203:I1 9 
*END

*D_NET *447 0.0551977
*CONN
*I *9365:I1 I *D gf180mcu_fd_sc_mcu7t5v0__mux2_2
*I *9647:I I *D gf180mcu_fd_sc_mcu7t5v0__buf_4
*I *9145:I1 I *D gf180mcu_fd_sc_mcu7t5v0__mux2_2
*I *9369:I1 I *D gf180mcu_fd_sc_mcu7t5v0__mux2_2
*I *9373:I1 I *D gf180mcu_fd_sc_mcu7t5v0__mux2_2
*I *9648:Z O *D gf180mcu_fd_sc_mcu7t5v0__buf_4
*CAP
1 *9365:I1 0
2 *9647:I 0
3 *9145:I1 0
4 *9369:I1 0.000178964
5 *9373:I1 0
6 *9648:Z 0.00260195
7 *447:49 0.0120715
8 *447:47 0.0120715
9 *447:45 0.00734871
10 *447:36 0.00756224
11 *447:25 0.000588124
12 *447:16 0.000454288
13 *447:10 0.00286062
14 *447:10 *9600:I 0.000209505
15 *447:10 *9601:I 0.00019231
16 *447:10 *9603:I 0.000254522
17 *447:16 *9600:I 0
18 *447:16 *9602:I 0.000208806
19 *447:36 *9603:I 0.00032814
20 *447:45 *9289:A1 0.00128579
21 *447:45 *9290:A1 0.000114578
22 *9365:S *447:16 3.07277e-05
23 *9369:S *9369:I1 0.00011246
24 *9369:S *447:25 0.000728207
25 *9369:S *447:36 0.000199998
26 *9373:I0 *9369:I1 1.25868e-05
27 *9503:I *447:45 0.000185815
28 *9504:I *447:45 0.00251662
29 *418:35 *447:10 0
30 *419:27 *447:10 0.000462662
31 *419:29 *447:10 0.00179958
32 *419:29 *447:16 0.000367043
33 *419:40 *447:16 8.35223e-05
34 *419:40 *447:25 0.000367033
*RES
1 *9648:Z *447:10 45.012 
2 *447:10 *447:16 6.788 
3 *447:16 *9373:I1 9 
4 *447:16 *447:25 2.808 
5 *447:25 *9369:I1 10.144 
6 *447:25 *447:36 3.016 
7 *447:36 *9145:I1 9 
8 *447:36 *447:45 71.448 
9 *447:45 *447:47 4.5 
10 *447:47 *447:49 83.096 
11 *447:49 *9647:I 4.5 
12 *447:10 *9365:I1 4.5 
*END

*D_NET *448 0.0623539
*CONN
*I *9349:I1 I *D gf180mcu_fd_sc_mcu7t5v0__mux2_2
*I *9183:I1 I *D gf180mcu_fd_sc_mcu7t5v0__mux2_2
*I *9353:I1 I *D gf180mcu_fd_sc_mcu7t5v0__mux2_2
*I *9361:I1 I *D gf180mcu_fd_sc_mcu7t5v0__mux2_2
*I *9357:I1 I *D gf180mcu_fd_sc_mcu7t5v0__mux2_2
*I *9563:Z O *D gf180mcu_fd_sc_mcu7t5v0__buf_4
*CAP
1 *9349:I1 0
2 *9183:I1 0.000183289
3 *9353:I1 0
4 *9361:I1 0
5 *9357:I1 0.000391648
6 *9563:Z 0.000454564
7 *448:67 0.00414666
8 *448:61 0.00655717
9 *448:49 0.00350972
10 *448:38 0.00102681
11 *448:20 0.0011519
12 *448:12 0.0013257
13 *448:12 *9284:A1 3.47771e-05
14 *448:12 *9614:I 0.000877286
15 *448:20 *9614:I 1.45789e-05
16 *448:38 *9614:I 5.42504e-05
17 *448:49 *9185:A1 0.000101592
18 *448:49 *9614:I 2.37048e-05
19 *448:49 *9633:D[1] 0.00040353
20 *448:61 *9347:A1 0
21 *448:61 *9350:A1 0
22 *448:61 *9596:I 0.00021758
23 *448:61 *686:21 0.00154167
24 *448:67 *559:14 0.000863978
25 tl_o[13] *9357:I1 0.000219402
26 tl_o[13] *448:20 0.000114671
27 tl_o[41] *448:20 0.00188066
28 *9187:I0 *448:49 0
29 *9284:A2 *448:49 1.32276e-05
30 *9347:A2 *448:49 1.24769e-06
31 *9348:A1 *448:61 0.000297853
32 *9352:A1 *448:49 0.00134581
33 *9353:I0 *448:49 6.18411e-06
34 *9353:S *448:49 0.000115553
35 *9361:I0 *448:12 0
36 *9361:I0 *448:20 0.000136122
37 *9361:S *448:20 0
38 *9425:CLK *448:49 0.000185295
39 *9578:I *448:61 7.80485e-05
40 *190:10 *448:61 0.00365806
41 *190:23 *448:61 0.00619304
42 *192:10 *9183:I1 0.00499254
43 *205:12 *448:49 6.89491e-05
44 *205:12 *448:61 3.58433e-05
45 *207:12 *448:49 1.57245e-05
46 *258:18 *448:67 0.000601731
47 *278:10 *448:67 5.47431e-06
48 *278:23 *9183:I1 0.00498528
49 *278:23 *448:67 0.000530502
50 *281:16 *448:67 0.0110851
51 *375:94 *9357:I1 1.38755e-05
52 *380:8 *448:12 0
53 *380:8 *448:20 3.71482e-05
54 *380:8 *448:38 0.000571507
55 *380:8 *448:49 0.000113016
56 *380:25 *448:49 0
57 *381:63 *448:49 0.000159292
58 *381:63 *448:61 0.000185764
59 *381:83 *448:49 0.000772207
60 *412:43 *448:67 0.000310074
61 *418:6 *448:49 0
62 *418:35 *448:12 0.000346597
63 *419:14 *448:20 0
64 *439:35 *9183:I1 0.000376784
65 *445:20 *448:20 2.09173e-05
*RES
1 *9563:Z *448:12 17.66 
2 *448:12 *448:20 12.924 
3 *448:20 *9357:I1 12.224 
4 *448:20 *9361:I1 9 
5 *448:12 *448:38 1.56 
6 *448:38 *9353:I1 4.5 
7 *448:38 *448:49 15.732 
8 *448:49 *448:61 49.588 
9 *448:61 *448:67 47.556 
10 *448:67 *9183:I1 22.208 
11 *448:49 *9349:I1 9 
*END

*D_NET *449 0.114172
*CONN
*I *9272:A2 I *D gf180mcu_fd_sc_mcu7t5v0__nor3_2
*I *9282:A2 I *D gf180mcu_fd_sc_mcu7t5v0__nor3_2
*I *9250:A2 I *D gf180mcu_fd_sc_mcu7t5v0__oai31_1
*I *9249:A1 I *D gf180mcu_fd_sc_mcu7t5v0__nand2_1
*I *9302:A2 I *D gf180mcu_fd_sc_mcu7t5v0__nor3_4
*I *9292:A2 I *D gf180mcu_fd_sc_mcu7t5v0__nor3_4
*I *9237:A3 I *D gf180mcu_fd_sc_mcu7t5v0__nor3_1
*I *9236:A3 I *D gf180mcu_fd_sc_mcu7t5v0__nor3_1
*I *9483:Z O *D gf180mcu_fd_sc_mcu7t5v0__clkbuf_2
*CAP
1 *9272:A2 0.000169734
2 *9282:A2 0.000912236
3 *9250:A2 0.00011592
4 *9249:A1 8.25214e-05
5 *9302:A2 0.000523143
6 *9292:A2 0.00356443
7 *9237:A3 0
8 *9236:A3 0
9 *9483:Z 0.00204366
10 *449:129 0.00123874
11 *449:116 0.000305706
12 *449:86 0.00408757
13 *449:84 0.00835241
14 *449:82 0.0100215
15 *449:59 0.00333486
16 *449:38 0.00251912
17 *449:32 0.00301485
18 *449:16 0.00436232
19 *9282:A2 *9252:A1 0.000113773
20 *9282:A2 *471:10 0.000570876
21 *9282:A2 *471:21 0.000937868
22 *9282:A2 *512:26 7.06537e-05
23 *449:16 *9218:A1 0
24 *449:16 *9218:A2 4.44008e-05
25 *449:16 *9229:A2 0
26 *449:16 *9279:A1 0
27 *449:16 *9339:A1 0.000401518
28 *449:16 *9632:D[6] 0.000794111
29 *449:32 *9129:I 0.000363537
30 *449:32 *9228:A2 9.6326e-05
31 *449:32 *9229:A2 0.000209505
32 *449:32 *9240:A1 9.9745e-05
33 *449:32 *9271:A2 2.32102e-05
34 *449:32 *9383:I0 0.00367888
35 *449:32 *460:18 0.000186419
36 *449:32 *460:22 0.000264637
37 *449:32 *512:26 0.000382529
38 *449:32 *530:22 0.00125631
39 *449:38 *594:83 0.000195919
40 *449:59 *9231:A1 0.000106582
41 *449:59 *595:33 0.000188241
42 *449:59 *648:34 0
43 *449:82 *9131:A1 0
44 *449:82 *593:12 8.35178e-06
45 *449:116 *512:26 0.000247638
46 *449:129 *512:26 0.00251075
47 tl_o[4] *9249:A1 1.47595e-05
48 *9138:A4 *9282:A2 0.00014999
49 *9235:A2 *9250:A2 2.9602e-06
50 *9235:A2 *9282:A2 0.00120354
51 *9237:A1 *449:59 0.000272924
52 *9249:A2 *9249:A1 0.000158673
53 *9255:A2 *9250:A2 0
54 *9262:A2 *9250:A2 0.000317315
55 *9263:A1 *9282:A2 3.646e-05
56 *9282:A1 *9282:A2 0.0019125
57 *9292:A1 *9292:A2 0
58 *9302:A1 *9302:A2 0.000668179
59 *9333:I0 *449:16 0.00104971
60 *9336:A1 *449:16 0.00032809
61 *9337:I0 *449:16 0.000399084
62 *9345:I0 *449:32 4.97341e-06
63 *9388:A1 *9282:A2 0.00144126
64 *9388:A1 *449:129 5.90237e-05
65 *9388:A2 *9282:A2 0.000219948
66 *9394:A2 *449:16 4.71521e-05
67 *9397:D *449:84 3.57108e-05
68 *9397:CLK *449:84 2.94648e-05
69 *9399:D *449:84 0.000419265
70 *9399:CLK *449:84 0.00927433
71 *9440:D *449:32 0.000262868
72 *9457:I *449:84 0.000124964
73 *9472:I *449:32 0.000547348
74 *9496:I *449:16 8.65343e-05
75 *9544:I *9250:A2 1.60428e-05
76 *9666:I *9282:A2 0.000292303
77 *9666:I *449:129 0.000169589
78 *128:26 *449:32 0.000499179
79 *202:12 *449:16 0.00106261
80 *203:12 *449:16 0
81 *204:8 *449:16 0.000280734
82 *249:12 *449:82 0.000473944
83 *249:16 *449:82 0.000569975
84 *255:14 *9282:A2 0.000245715
85 *256:12 *449:82 2.14739e-05
86 *299:12 *449:82 8.80177e-06
87 *299:16 *449:82 6.75181e-05
88 *300:24 *449:32 0.000420211
89 *328:12 *9272:A2 0.000243062
90 *328:12 *449:16 8.02494e-05
91 *329:12 *9282:A2 0.000447306
92 *365:14 *449:38 0
93 *369:18 *449:32 1.17078e-05
94 *369:18 *449:38 0.000353656
95 *370:14 *449:32 2.95329e-05
96 *370:14 *449:38 0.000218399
97 *371:8 *9272:A2 0.00039949
98 *374:36 *449:84 0.00296953
99 *375:36 *449:84 0.000115371
100 *375:69 *449:84 0.00299875
101 *375:92 *9282:A2 9.72104e-05
102 *378:91 *449:16 9.47125e-06
103 *378:102 *449:32 0.000122381
104 *378:108 *449:16 0
105 *378:135 *449:32 2.83881e-05
106 *378:146 *449:32 5.32552e-05
107 *378:159 *449:32 2.60017e-05
108 *393:8 *449:16 0.000134833
109 *399:18 *449:59 0.000253847
110 *438:12 *449:16 0
111 *438:29 *449:32 0.00031493
112 *438:33 *449:38 0.000383916
113 *438:56 *449:38 1.29281e-05
114 *438:56 *449:59 2.47963e-05
115 *438:72 *449:59 0
116 *438:72 *449:82 0
117 *438:74 *449:84 0.00159442
118 *438:78 *9292:A2 1.19663e-05
119 *438:78 *449:84 0.0197045
120 *438:82 *9292:A2 0.000107648
121 *438:82 *9302:A2 0.000116476
122 *438:119 *449:32 0.000185852
123 *438:119 *449:116 0.000259473
124 *438:119 *449:129 0.00226033
125 *438:125 *9282:A2 6.50665e-06
*RES
1 *9483:Z *449:16 34.092 
2 *449:16 *449:32 41.268 
3 *449:32 *449:38 15.76 
4 *449:38 *9236:A3 9 
5 *449:38 *449:59 20.96 
6 *449:59 *9237:A3 9 
7 *449:59 *449:82 32.588 
8 *449:82 *449:84 111.384 
9 *449:84 *449:86 4.5 
10 *449:86 *9292:A2 45.456 
11 *449:86 *9302:A2 14.096 
12 *449:32 *449:116 0.728 
13 *449:116 *9249:A1 9.52 
14 *449:116 *449:129 7.072 
15 *449:129 *9250:A2 9.936 
16 *449:129 *9282:A2 23.872 
17 *449:16 *9272:A2 6.476 
*END

*D_NET *450 0.024197
*CONN
*I *9290:A2 I *D gf180mcu_fd_sc_mcu7t5v0__and2_1
*I *9289:A2 I *D gf180mcu_fd_sc_mcu7t5v0__and2_1
*I *9288:A2 I *D gf180mcu_fd_sc_mcu7t5v0__and2_1
*I *9287:A2 I *D gf180mcu_fd_sc_mcu7t5v0__and2_1
*I *9286:A2 I *D gf180mcu_fd_sc_mcu7t5v0__and2_1
*I *9649:Z O *D gf180mcu_fd_sc_mcu7t5v0__buf_2
*CAP
1 *9290:A2 0.00126757
2 *9289:A2 0
3 *9288:A2 0
4 *9287:A2 0
5 *9286:A2 0
6 *9649:Z 0.000414698
7 *450:35 0.00155936
8 *450:26 0.00229897
9 *450:17 0.00911824
10 *450:8 0.00752576
11 *9373:I0 *450:17 0.00028424
12 *211:10 *450:17 0.000198435
13 *380:152 *450:8 0.000101593
14 *380:152 *450:17 0.00142815
*RES
1 *9649:Z *450:8 12.432 
2 *450:8 *9286:A2 9 
3 *450:8 *450:17 70.824 
4 *450:17 *9287:A2 9 
5 *450:17 *450:26 17.368 
6 *450:26 *9288:A2 9 
7 *450:26 *450:35 1.976 
8 *450:35 *9289:A2 9 
9 *450:35 *9290:A2 18.88 
*END

*D_NET *451 0.0251274
*CONN
*I *9277:A2 I *D gf180mcu_fd_sc_mcu7t5v0__and2_1
*I *9276:A2 I *D gf180mcu_fd_sc_mcu7t5v0__and2_1
*I *9275:A2 I *D gf180mcu_fd_sc_mcu7t5v0__and2_1
*I *9274:A2 I *D gf180mcu_fd_sc_mcu7t5v0__and2_1
*I *9273:A2 I *D gf180mcu_fd_sc_mcu7t5v0__and2_1
*I *9650:Z O *D gf180mcu_fd_sc_mcu7t5v0__buf_2
*CAP
1 *9277:A2 0
2 *9276:A2 0
3 *9275:A2 0
4 *9274:A2 0
5 *9273:A2 0.00119669
6 *9650:Z 0.000782507
7 *451:20 0.00147418
8 *451:18 0.0022996
9 *451:16 0.0100954
10 *451:14 0.00813115
11 *451:10 0.00084037
12 *451:16 *9319:A1 5.03834e-05
13 *451:16 *9632:D[3] 0.000209115
14 *9321:I0 *451:16 0
15 *9650:I *451:10 4.79893e-05
16 *198:12 *451:16 0
*RES
1 *9650:Z *451:10 15.656 
2 *451:10 *451:14 0.52 
3 *451:14 *451:16 71.968 
4 *451:16 *451:18 16.12 
5 *451:18 *451:20 2.184 
6 *451:20 *9273:A2 19.504 
7 *451:20 *9274:A2 9 
8 *451:18 *9275:A2 9 
9 *451:16 *9276:A2 9 
10 *451:10 *9277:A2 9 
*END

*D_NET *452 0.0413408
*CONN
*I *9635:WEN[7] I *D gf180mcu_fd_ip_sram__sram256x8m8wm1
*I *9635:WEN[6] I *D gf180mcu_fd_ip_sram__sram256x8m8wm1
*I *9635:WEN[5] I *D gf180mcu_fd_ip_sram__sram256x8m8wm1
*I *9635:WEN[4] I *D gf180mcu_fd_ip_sram__sram256x8m8wm1
*I *9635:WEN[3] I *D gf180mcu_fd_ip_sram__sram256x8m8wm1
*I *9635:WEN[2] I *D gf180mcu_fd_ip_sram__sram256x8m8wm1
*I *9635:WEN[1] I *D gf180mcu_fd_ip_sram__sram256x8m8wm1
*I *9635:WEN[0] I *D gf180mcu_fd_ip_sram__sram256x8m8wm1
*I *9564:Z O *D gf180mcu_fd_sc_mcu7t5v0__buf_4
*CAP
1 *9635:WEN[7] 0.00234141
2 *9635:WEN[6] 3.83959e-05
3 *9635:WEN[5] 3.4797e-05
4 *9635:WEN[4] 6.55297e-05
5 *9635:WEN[3] 5.39232e-05
6 *9635:WEN[2] 2.6201e-05
7 *9635:WEN[1] 4.6992e-05
8 *9635:WEN[0] 0.00467797
9 *9564:Z 0.00235639
10 *452:102 0.00252338
11 *452:92 0.00236446
12 *452:82 0.00473281
13 *452:80 0.00694448
14 *452:72 0.00592433
15 *452:48 0.00372623
16 *452:38 0.00239321
17 *452:28 0.00252432
18 *9635:WEN[7] *9208:A1 0
19 *9635:WEN[7] *9635:D[7] 0
20 *9635:WEN[6] *9635:D[6] 1.92742e-05
21 *9635:WEN[5] *9635:D[5] 4.07263e-05
22 *9635:WEN[4] *9635:D[4] 9.23812e-06
23 *9635:WEN[3] *9192:A1 0
24 *9635:WEN[3] *9635:D[3] 4.07263e-05
25 *9635:WEN[2] *9635:D[2] 4.07263e-05
26 *9635:WEN[1] *9635:D[1] 1.92742e-05
27 *9635:WEN[0] *9635:D[0] 9.23812e-06
28 *9635:WEN[0] *577:11 0
29 *452:28 *577:11 0
30 *452:28 *578:11 0.000386808
*RES
1 *9564:Z *9635:WEN[0] 21.608 
2 *9635:WEN[0] *452:28 24.624 
3 *452:28 *9635:WEN[1] 4.968 
4 *452:28 *452:38 0.936 
5 *452:38 *9635:WEN[2] 4.968 
6 *452:38 *452:48 19.448 
7 *452:48 *9635:WEN[3] 4.968 
8 *452:48 *452:72 13.52 
9 *452:72 *452:80 39.104 
10 *452:80 *452:82 21.736 
11 *452:82 *9635:WEN[4] 4.968 
12 *452:82 *452:92 18.824 
13 *452:92 *9635:WEN[5] 4.968 
14 *452:92 *452:102 0.936 
15 *452:102 *9635:WEN[6] 4.968 
16 *452:102 *9635:WEN[7] 23.584 
*END

*D_NET *453 0.0463333
*CONN
*I *9634:WEN[7] I *D gf180mcu_fd_ip_sram__sram256x8m8wm1
*I *9634:WEN[6] I *D gf180mcu_fd_ip_sram__sram256x8m8wm1
*I *9634:WEN[5] I *D gf180mcu_fd_ip_sram__sram256x8m8wm1
*I *9634:WEN[4] I *D gf180mcu_fd_ip_sram__sram256x8m8wm1
*I *9634:WEN[3] I *D gf180mcu_fd_ip_sram__sram256x8m8wm1
*I *9634:WEN[2] I *D gf180mcu_fd_ip_sram__sram256x8m8wm1
*I *9634:WEN[1] I *D gf180mcu_fd_ip_sram__sram256x8m8wm1
*I *9634:WEN[0] I *D gf180mcu_fd_ip_sram__sram256x8m8wm1
*I *9565:Z O *D gf180mcu_fd_sc_mcu7t5v0__clkbuf_8
*CAP
1 *9634:WEN[7] 5.8666e-05
2 *9634:WEN[6] 3.01668e-05
3 *9634:WEN[5] 3.87628e-05
4 *9634:WEN[4] 6.55297e-05
5 *9634:WEN[3] 5.78891e-05
6 *9634:WEN[2] 2.6201e-05
7 *9634:WEN[1] 3.87628e-05
8 *9634:WEN[0] 0.00218302
9 *9565:Z 0.00447084
10 *453:44 0.00235603
11 *453:42 0.00249968
12 *453:40 0.00332234
13 *453:38 0.00580154
14 *453:30 0.00748405
15 *453:22 0.00482443
16 *453:20 0.00232417
17 *453:18 0.00254443
18 *453:14 0.00690952
19 *9634:WEN[7] *9175:A1 0
20 *9634:WEN[6] *9634:D[6] 2.78537e-05
21 *9634:WEN[5] *9634:D[5] 2.78537e-05
22 *9634:WEN[4] *9163:A1 0
23 *9634:WEN[4] *9634:D[4] 9.23812e-06
24 *9634:WEN[3] *9159:A1 0
25 *9634:WEN[3] *9634:D[3] 2.78537e-05
26 *9634:WEN[2] *9634:D[2] 4.07263e-05
27 *9634:WEN[1] *9634:D[1] 2.78537e-05
28 *9634:WEN[0] *9147:A1 0
29 *9634:WEN[0] *9634:D[0] 0
30 *453:14 *9175:A1 0
31 *453:22 *9163:A1 0
32 *453:30 *9163:A1 0
33 *453:38 *9163:A1 0
34 *9292:A1 *453:14 0
35 *9292:A3 *453:14 0.000305781
36 *9300:A2 *453:14 5.52791e-05
37 *330:6 *453:14 0.000774795
38 *379:38 *453:14 0
*RES
1 *9565:Z *453:14 49.796 
2 *453:14 *453:18 23.324 
3 *453:18 *453:20 0.936 
4 *453:20 *453:22 18.824 
5 *453:22 *453:30 23.088 
6 *453:30 *453:38 42.432 
7 *453:38 *453:40 8.216 
8 *453:40 *453:42 19.24 
9 *453:42 *453:44 0.936 
10 *453:44 *9634:WEN[0] 23.584 
11 *453:44 *9634:WEN[1] 4.968 
12 *453:42 *9634:WEN[2] 4.968 
13 *453:40 *9634:WEN[3] 4.968 
14 *453:22 *9634:WEN[4] 4.968 
15 *453:20 *9634:WEN[5] 4.968 
16 *453:18 *9634:WEN[6] 4.968 
17 *453:14 *9634:WEN[7] 0.468 
*END

*D_NET *454 0.0624363
*CONN
*I *9634:A[7] I *D gf180mcu_fd_ip_sram__sram256x8m8wm1
*I *9632:A[7] I *D gf180mcu_fd_ip_sram__sram256x8m8wm1
*I *9651:Z O *D gf180mcu_fd_sc_mcu7t5v0__buf_8
*CAP
1 *9634:A[7] 9.91671e-05
2 *9632:A[7] 0.000712738
3 *9651:Z 0.000487702
4 *454:30 0.0163223
5 *454:28 0.0162505
6 *454:10 0.00117313
7 *454:10 *467:8 0.0126111
8 *332:45 *454:10 0.0147797
*RES
1 *9651:Z *454:10 46.44 
2 *454:10 *9632:A[7] 9.96 
3 *9632:A[7] *454:28 9.468 
4 *454:28 *454:30 148.824 
5 *454:30 *9634:A[7] 9.676 
*END

*D_NET *455 0.0538605
*CONN
*I *9635:A[7] I *D gf180mcu_fd_ip_sram__sram256x8m8wm1
*I *9633:A[7] I *D gf180mcu_fd_ip_sram__sram256x8m8wm1
*I *9652:Z O *D gf180mcu_fd_sc_mcu7t5v0__buf_8
*CAP
1 *9635:A[7] 5.45489e-05
2 *9633:A[7] 9.91671e-05
3 *9652:Z 0.00151885
4 *455:30 0.0163192
5 *455:18 0.0178827
6 *455:18 *9350:A1 2.91621e-05
7 *455:18 *9358:A1 6.69938e-05
8 *455:18 *9633:A[2] 0
9 *455:18 *9633:D[2] 5.10196e-05
10 *455:18 *9633:D[1] 0.00129015
11 *455:18 *466:14 0.00940526
12 *455:18 *468:18 0.00702719
13 *455:30 *9633:A[2] 0
14 *9664:I *455:18 0.000116268
*RES
1 *9652:Z *455:18 49.796 
2 *455:18 *9633:A[7] 9.676 
3 *455:18 *455:30 149.24 
4 *455:30 *9635:A[7] 9.468 
*END

*D_NET *456 0.061527
*CONN
*I *9634:A[6] I *D gf180mcu_fd_ip_sram__sram256x8m8wm1
*I *9632:A[6] I *D gf180mcu_fd_ip_sram__sram256x8m8wm1
*I *9653:Z O *D gf180mcu_fd_sc_mcu7t5v0__buf_4
*CAP
1 *9634:A[6] 0
2 *9632:A[6] 0.000633323
3 *9653:Z 0.000241896
4 *456:25 0.0139374
5 *456:23 0.0139374
6 *456:8 0.000875219
7 *9632:A[6] *9632:A[5] 1.09477e-05
8 *9632:A[6] *458:18 0.000100311
9 *456:8 *458:14 0.0115381
10 *456:8 *461:8 0.0137788
11 *456:25 *458:26 0.0047393
12 *9663:I *456:8 0.0014125
13 *332:45 *456:8 0.000321744
*RES
1 *9653:Z *456:8 46.336 
2 *456:8 *9632:A[6] 9.544 
3 *9632:A[6] *456:23 9 
4 *456:23 *456:25 147.576 
5 *456:25 *9634:A[6] 9 
*END

*D_NET *457 0.0488614
*CONN
*I *9635:A[6] I *D gf180mcu_fd_ip_sram__sram256x8m8wm1
*I *9633:A[6] I *D gf180mcu_fd_ip_sram__sram256x8m8wm1
*I *9654:Z O *D gf180mcu_fd_sc_mcu7t5v0__buf_8
*CAP
1 *9635:A[6] 0
2 *9633:A[6] 0
3 *9654:Z 0.00198466
4 *457:21 0.0140108
5 *457:12 0.0145196
6 *457:10 0.00249347
7 *457:10 *464:12 0.0101128
8 *457:12 *459:14 0.000146062
9 *457:12 *459:26 1.38699e-05
10 *457:21 *459:26 0.00480255
11 *258:62 *457:10 0.000777489
*RES
1 *9654:Z *457:10 45.636 
2 *457:10 *457:12 5.096 
3 *457:12 *9633:A[6] 9 
4 *457:12 *457:21 149.032 
5 *457:21 *9635:A[6] 9 
*END

*D_NET *458 0.0547647
*CONN
*I *9632:A[5] I *D gf180mcu_fd_ip_sram__sram256x8m8wm1
*I *9634:A[5] I *D gf180mcu_fd_ip_sram__sram256x8m8wm1
*I *9655:Z O *D gf180mcu_fd_sc_mcu7t5v0__buf_4
*CAP
1 *9632:A[5] 9.56543e-05
2 *9634:A[5] 9.91671e-05
3 *9655:Z 0.00320964
4 *458:26 0.0142157
5 *458:24 0.0141276
6 *458:18 0.000581274
7 *458:14 0.00368413
8 *9632:A[5] *9632:A[4] 0
9 *9634:A[5] *9634:A[4] 0
10 *458:14 *9330:A1 0.000455211
11 *458:14 *9334:A1 3.62642e-05
12 *458:14 *9342:A1 4.41424e-06
13 *458:14 *9394:A1 0
14 *458:14 *9632:D[7] 0
15 *458:14 *461:8 0.000392237
16 *458:18 *9632:A[4] 0
17 *458:26 *461:28 0
18 *458:26 *461:32 0
19 *9632:A[6] *9632:A[5] 1.09477e-05
20 *9632:A[6] *458:18 0.000100311
21 *9663:I *458:14 0.00125164
22 *189:42 *458:24 0.000106582
23 *407:22 *458:24 0.000116466
24 *456:8 *458:14 0.0115381
25 *456:25 *458:26 0.0047393
*RES
1 *9655:Z *458:14 49.768 
2 *458:14 *458:18 8.556 
3 *458:18 *458:24 9.312 
4 *458:24 *458:26 149.032 
5 *458:26 *9634:A[5] 9.676 
6 *458:18 *9632:A[5] 0.676 
*END

*D_NET *459 0.0427447
*CONN
*I *9635:A[5] I *D gf180mcu_fd_ip_sram__sram256x8m8wm1
*I *9633:A[5] I *D gf180mcu_fd_ip_sram__sram256x8m8wm1
*I *9656:Z O *D gf180mcu_fd_sc_mcu7t5v0__buf_8
*CAP
1 *9635:A[5] 9.91671e-05
2 *9633:A[5] 4.89003e-05
3 *9656:Z 0.0038301
4 *459:26 0.0139494
5 *459:14 0.0146047
6 *459:12 0.00453563
7 *9633:A[5] *9633:A[4] 1.23172e-05
8 *9635:A[5] *9635:A[4] 0
9 *459:12 *462:12 0
10 *459:14 *462:14 0.000206683
11 *459:26 *462:14 3.46748e-06
12 *459:26 *462:28 0.000280866
13 *459:26 *462:30 0
14 *9364:A1 *459:12 9.61989e-05
15 *368:37 *459:12 0.000114799
16 *440:43 *459:12 0
17 *457:12 *459:14 0.000146062
18 *457:12 *459:26 1.38699e-05
19 *457:21 *459:26 0.00480255
*RES
1 *9656:Z *459:12 46.78 
2 *459:12 *459:14 6.968 
3 *459:14 *9633:A[5] 9.468 
4 *459:14 *459:26 148.824 
5 *459:26 *9635:A[5] 9.676 
*END

*D_NET *460 0.0640514
*CONN
*I *9226:A1 I *D gf180mcu_fd_sc_mcu7t5v0__and2_2
*I *9228:A1 I *D gf180mcu_fd_sc_mcu7t5v0__and2_2
*I *9223:A2 I *D gf180mcu_fd_sc_mcu7t5v0__and2_2
*I *9281:A1 I *D gf180mcu_fd_sc_mcu7t5v0__nand2_1
*I *9301:A1 I *D gf180mcu_fd_sc_mcu7t5v0__nand2_2
*I *9128:I I *D gf180mcu_fd_sc_mcu7t5v0__clkinv_1
*I *9291:A1 I *D gf180mcu_fd_sc_mcu7t5v0__nand2_2
*I *9224:A1 I *D gf180mcu_fd_sc_mcu7t5v0__and2_2
*I *9227:A1 I *D gf180mcu_fd_sc_mcu7t5v0__and2_2
*I *9261:A1 I *D gf180mcu_fd_sc_mcu7t5v0__nand4_1
*I *9225:A1 I *D gf180mcu_fd_sc_mcu7t5v0__and2_2
*I *9229:A1 I *D gf180mcu_fd_sc_mcu7t5v0__and2_2
*I *9271:A1 I *D gf180mcu_fd_sc_mcu7t5v0__nand2_1
*I *9230:A1 I *D gf180mcu_fd_sc_mcu7t5v0__and2_2
*I *9232:A1 I *D gf180mcu_fd_sc_mcu7t5v0__nand2_1
*I *9484:Z O *D gf180mcu_fd_sc_mcu7t5v0__dlyd_1
*CAP
1 *9226:A1 0.000395855
2 *9228:A1 5.65628e-05
3 *9223:A2 0.000120312
4 *9281:A1 0
5 *9301:A1 8.73303e-05
6 *9128:I 0.00116153
7 *9291:A1 0.000320325
8 *9224:A1 0
9 *9227:A1 0.000164242
10 *9261:A1 0.000879497
11 *9225:A1 0.00024671
12 *9229:A1 0
13 *9271:A1 0.000118046
14 *9230:A1 0.000100444
15 *9232:A1 7.64057e-05
16 *9484:Z 3.27193e-05
17 *460:164 0.00233861
18 *460:160 0.00254828
19 *460:150 0.00332516
20 *460:129 0.00214763
21 *460:123 0.00067777
22 *460:110 0.000617019
23 *460:106 0.000568247
24 *460:81 0.00178114
25 *460:77 0.00139603
26 *460:30 0.000979348
27 *460:22 0.00133191
28 *460:18 0.000467175
29 *460:14 0.000754361
30 *460:8 0.000772778
31 *9128:I *9449:D 0.000106185
32 *9223:A2 *9223:A1 7.12358e-05
33 *9225:A1 *9225:A2 0.000609607
34 *9226:A1 *9226:A2 0.000157768
35 *9227:A1 *9227:A2 0.000277994
36 *9227:A1 *594:26 9.49602e-05
37 *9230:A1 *9230:A2 0.000197059
38 *9230:A1 *9232:A2 0.00082118
39 *9232:A1 *9232:A2 0.000265501
40 *9232:A1 *9280:A1 1.26329e-05
41 *9261:A1 *9257:A1 0.000304187
42 *9261:A1 *513:20 0.000764319
43 *9261:A1 *594:26 0.00011113
44 *9271:A1 *9271:A2 0.000245642
45 *9291:A1 *514:69 0.00037827
46 *9301:A1 *9301:A2 0.000136
47 *9301:A1 *9377:I0 0.000113027
48 *460:8 *9230:A2 0.000256274
49 *460:8 *9381:I0 0.000247057
50 *460:14 *9225:A2 0.000699131
51 *460:14 *9229:A2 2.85433e-05
52 *460:14 *9381:I0 0.000522435
53 *460:14 *594:26 1.42358e-05
54 *460:18 *9271:A2 0.000216402
55 *460:22 *9271:A2 0.000885069
56 *460:22 *9343:A1 1.87342e-05
57 *460:30 *9280:A1 8.52736e-05
58 *460:30 *9335:A1 0.0002514
59 *460:77 *594:26 0.00034356
60 *460:81 *515:8 0.0012448
61 *460:81 *515:25 0.000822081
62 *460:81 *530:22 2.50554e-05
63 *460:81 *594:26 0.000415524
64 *460:106 *530:22 7.64811e-05
65 *460:106 *594:26 7.81311e-05
66 *460:110 *9228:A2 9.51345e-06
67 *460:110 *594:26 0.000172353
68 *460:123 *594:26 3.54009e-05
69 *460:129 *9223:A1 6.06951e-05
70 *460:150 *9269:A2 8.73583e-05
71 *460:150 *9393:I1 8.21146e-06
72 *460:150 *9591:I 0.000316636
73 *460:150 *484:22 4.00646e-05
74 *460:150 *512:94 0.000819572
75 *460:150 *603:25 5.40367e-05
76 *460:160 *9141:A1 0.0010392
77 *460:160 *9141:A2 0.00019377
78 *460:160 *9301:A2 0.00026679
79 *460:160 *9375:I1 0.000606818
80 *460:160 *512:94 0.000113027
81 *460:160 *648:8 0
82 *460:160 *648:89 0.000117664
83 *460:160 *651:6 0.000658302
84 *460:160 *686:10 0.000272965
85 *460:160 *687:8 4.5618e-05
86 *460:164 *9301:A2 0.000372594
87 *460:164 *9377:I0 0.000214016
88 *460:164 *514:69 0.000306641
89 *9238:A1 *9225:A1 1.37902e-05
90 *9249:A2 *460:129 5.25802e-05
91 *9249:A2 *460:150 9.13087e-05
92 *9253:A1 *460:150 0.000102349
93 *9257:A2 *9261:A1 0.000158666
94 *9257:B1 *9261:A1 0.000505479
95 *9260:A2 *9228:A1 2.90512e-05
96 *9263:A1 *460:150 0.000302246
97 *9263:A2 *460:150 0.00032237
98 *9263:A3 *460:150 0.000394235
99 *9265:A1 *460:160 4.53005e-05
100 *9268:I1 *9128:I 0.000979229
101 *9312:A4 *460:150 0
102 *9312:A4 *460:160 0.000410033
103 *9333:I0 *9230:A1 0
104 *9335:A2 *460:30 4.59225e-05
105 *9336:A2 *460:30 3.93698e-05
106 *9337:I0 *460:22 8.51644e-05
107 *9340:A1 *9271:A1 0
108 *9341:I0 *9232:A1 3.60231e-05
109 *9341:I0 *460:30 2.16642e-05
110 *9345:I0 *460:14 0.00227255
111 *9345:I0 *460:77 0.00236401
112 *9345:I0 *460:81 0.000141855
113 *9377:S *460:164 0.000199988
114 *9388:B *460:150 0.000251819
115 *9394:A2 *460:14 5.19951e-05
116 *9395:B *9226:A1 0
117 *9396:D *9128:I 0.000151966
118 *9399:D *460:164 2.71538e-05
119 *9406:D *460:30 6.41811e-05
120 *9406:CLK *460:30 8.07445e-05
121 *9440:CLK *460:14 0.000560747
122 *9446:D *460:150 0.000316625
123 *9472:I *460:110 0
124 *9478:I *460:150 0.000388904
125 *9479:I *9227:A1 5.61634e-05
126 *9479:I *460:123 0
127 *9479:I *460:129 2.79795e-05
128 *9480:I *9261:A1 0.00129818
129 *9481:I *9223:A2 8.90321e-05
130 *9481:I *9227:A1 4.00092e-05
131 *9481:I *460:123 0
132 *9481:I *460:129 7.02771e-05
133 *9529:I *9261:A1 0.00179018
134 *9539:I *9226:A1 0.000757702
135 *9542:I *9226:A1 3.57108e-05
136 *9545:I *9227:A1 2.24654e-05
137 *9545:I *460:110 0.000251311
138 *9545:I *460:123 0.000562866
139 *9545:I *460:129 0.000186635
140 *9638:I *9301:A1 0.000104921
141 *9638:I *460:160 0.000123121
142 *9639:I *460:129 0.000126795
143 *9639:I *460:150 0.000224975
144 *204:8 *460:14 0.000260006
145 *248:8 *9228:A1 4.26506e-05
146 *281:16 *460:150 0.000820492
147 *281:16 *460:160 0.000262672
148 *328:20 *9230:A1 0.000522341
149 *328:20 *460:30 0
150 *371:14 *9225:A1 0.000438819
151 *372:18 *9230:A1 1.90343e-05
152 *380:207 *9128:I 0.000203364
153 *380:220 *9128:I 0.000155331
154 *380:229 *9128:I 0.000101277
155 *396:18 *9225:A1 0.000438819
156 *399:18 *460:160 0
157 *402:18 *9225:A1 0.000837813
158 *404:14 *9223:A2 5.77431e-06
159 *404:14 *460:129 4.0819e-05
160 *405:25 *9261:A1 0.000329068
161 *407:57 *460:160 0
162 *422:85 *9226:A1 0.00171764
163 *424:8 *9271:A1 7.86954e-06
164 *424:8 *460:30 1.36398e-06
165 *424:19 *460:22 0.000441747
166 *438:12 *9271:A1 3.4021e-05
167 *438:12 *460:22 1.06825e-05
168 *438:12 *460:30 3.51051e-05
169 *439:18 *460:160 0.000424418
170 *449:32 *460:18 0.000186419
171 *449:32 *460:22 0.000264637
*RES
1 *9484:Z *460:8 9.728 
2 *460:8 *460:14 13.236 
3 *460:14 *460:18 5.852 
4 *460:18 *460:22 10.428 
5 *460:22 *460:30 5.824 
6 *460:30 *9232:A1 5.436 
7 *460:30 *9230:A1 15.892 
8 *460:22 *9271:A1 5.644 
9 *460:18 *9229:A1 9 
10 *460:14 *9225:A1 17.66 
11 *460:8 *460:77 6.136 
12 *460:77 *460:81 7.904 
13 *460:81 *9261:A1 31.104 
14 *460:81 *460:106 1.56 
15 *460:106 *460:110 2.496 
16 *460:110 *9227:A1 11.184 
17 *460:110 *460:123 6.06 
18 *460:123 *460:129 8.868 
19 *460:129 *9224:A1 9 
20 *460:129 *460:150 21.556 
21 *460:150 *460:160 27.616 
22 *460:160 *460:164 12.508 
23 *460:164 *9291:A1 12.64 
24 *460:164 *9128:I 19.712 
25 *460:160 *9301:A1 5.644 
26 *460:150 *9281:A1 4.5 
27 *460:123 *9223:A2 5.436 
28 *460:106 *9228:A1 9.52 
29 *460:77 *9226:A1 14.616 
*END

*D_NET *461 0.0602786
*CONN
*I *9634:A[4] I *D gf180mcu_fd_ip_sram__sram256x8m8wm1
*I *9632:A[4] I *D gf180mcu_fd_ip_sram__sram256x8m8wm1
*I *9657:Z O *D gf180mcu_fd_sc_mcu7t5v0__buf_8
*CAP
1 *9634:A[4] 9.91671e-05
2 *9632:A[4] 0.000823003
3 *9657:Z 0.000360275
4 *461:32 0.010688
5 *461:30 0.010665
6 *461:28 0.00551807
7 *461:26 0.00550194
8 *461:8 0.00112321
9 *9632:A[4] *9632:A[3] 0
10 *9632:A[4] *463:12 0
11 *9634:A[4] *9634:A[3] 0
12 *461:28 *463:20 0
13 *461:32 *463:20 0
14 *9632:A[5] *9632:A[4] 0
15 *9634:A[5] *9634:A[4] 0
16 *9663:I *461:8 0.0017329
17 *332:43 *461:8 0.00376496
18 *332:45 *461:8 0.00380244
19 *433:10 *461:8 0.00192753
20 *433:12 *461:8 0.000101151
21 *456:8 *461:8 0.0137788
22 *458:14 *461:8 0.000392237
23 *458:18 *9632:A[4] 0
24 *458:26 *461:28 0
25 *458:26 *461:32 0
*RES
1 *9657:Z *461:8 46.96 
2 *461:8 *9632:A[4] 9.752 
3 *9632:A[4] *461:26 9.468 
4 *461:26 *461:28 50.336 
5 *461:28 *461:30 0.728 
6 *461:30 *461:32 96.72 
7 *461:32 *9634:A[4] 9.676 
*END

*D_NET *462 0.0439065
*CONN
*I *9635:A[4] I *D gf180mcu_fd_ip_sram__sram256x8m8wm1
*I *9633:A[4] I *D gf180mcu_fd_ip_sram__sram256x8m8wm1
*I *9658:Z O *D gf180mcu_fd_sc_mcu7t5v0__buf_8
*CAP
1 *9635:A[4] 9.91671e-05
2 *9633:A[4] 4.89003e-05
3 *9658:Z 0.00354345
4 *462:30 0.0153845
5 *462:28 0.0160789
6 *462:14 0.00180147
7 *462:12 0.0045025
8 *9633:A[4] *9633:A[3] 0
9 *9635:A[4] *9635:A[3] 0
10 *462:14 *464:12 0
11 *462:28 *464:12 0
12 *462:28 *464:26 0
13 *462:30 *464:26 0
14 *462:30 *464:28 0
15 *9364:A1 *462:12 0.00177703
16 *9633:A[5] *9633:A[4] 1.23172e-05
17 *9635:A[5] *9635:A[4] 0
18 *430:10 *462:12 0
19 *430:36 *462:12 0.00016721
20 *459:12 *462:12 0
21 *459:14 *462:14 0.000206683
22 *459:26 *462:14 3.46748e-06
23 *459:26 *462:28 0.000280866
24 *459:26 *462:30 0
*RES
1 *9658:Z *462:12 46.78 
2 *462:12 *462:14 8.424 
3 *462:14 *9633:A[4] 9.468 
4 *462:14 *462:28 8.84 
5 *462:28 *462:30 140.4 
6 *462:30 *9635:A[4] 9.676 
*END

*D_NET *463 0.0507864
*CONN
*I *9632:A[3] I *D gf180mcu_fd_ip_sram__sram256x8m8wm1
*I *9634:A[3] I *D gf180mcu_fd_ip_sram__sram256x8m8wm1
*I *9659:Z O *D gf180mcu_fd_sc_mcu7t5v0__buf_4
*CAP
1 *9632:A[3] 0.000100753
2 *9634:A[3] 9.91671e-05
3 *9659:Z 0.00138104
4 *463:20 0.0163915
5 *463:18 0.0163034
6 *463:12 0.00111552
7 *463:8 0.00238468
8 *9272:A3 *463:8 3.63356e-05
9 *9342:A2 *463:8 0.000368231
10 *9344:A1 *463:8 0.000784644
11 *9632:A[4] *9632:A[3] 0
12 *9632:A[4] *463:12 0
13 *9634:A[4] *9634:A[3] 0
14 *9661:I *463:8 0.00106546
15 *189:42 *463:18 0.000106582
16 *365:30 *463:8 0.000980583
17 *367:12 *463:8 0.00195546
18 *372:28 *463:8 0.00720438
19 *396:18 *463:8 0.000392212
20 *407:22 *463:18 0.000116466
21 *461:28 *463:20 0
22 *461:32 *463:20 0
*RES
1 *9659:Z *463:8 46.544 
2 *463:8 *463:12 11.052 
3 *463:12 *463:18 9.312 
4 *463:18 *463:20 149.032 
5 *463:20 *9634:A[3] 9.676 
6 *463:12 *9632:A[3] 0.676 
*END

*D_NET *464 0.0501377
*CONN
*I *9635:A[3] I *D gf180mcu_fd_ip_sram__sram256x8m8wm1
*I *9633:A[3] I *D gf180mcu_fd_ip_sram__sram256x8m8wm1
*I *9660:Z O *D gf180mcu_fd_sc_mcu7t5v0__buf_8
*CAP
1 *9635:A[3] 9.91671e-05
2 *9633:A[3] 5.45489e-05
3 *9660:Z 0.00109212
4 *464:28 0.0153845
5 *464:26 0.0162075
6 *464:12 0.00206882
7 *9633:A[4] *9633:A[3] 0
8 *9635:A[4] *9635:A[3] 0
9 *258:62 *464:12 0.00511827
10 *457:10 *464:12 0.0101128
11 *462:14 *464:12 0
12 *462:28 *464:12 0
13 *462:28 *464:26 0
14 *462:30 *464:26 0
15 *462:30 *464:28 0
*RES
1 *9660:Z *464:12 48.444 
2 *464:12 *9633:A[3] 9.468 
3 *464:12 *464:26 8.84 
4 *464:26 *464:28 140.4 
5 *464:28 *9635:A[3] 9.676 
*END

*D_NET *465 0.0520024
*CONN
*I *9634:A[2] I *D gf180mcu_fd_ip_sram__sram256x8m8wm1
*I *9632:A[2] I *D gf180mcu_fd_ip_sram__sram256x8m8wm1
*I *9661:Z O *D gf180mcu_fd_sc_mcu7t5v0__buf_8
*CAP
1 *9634:A[2] 0
2 *9632:A[2] 0.00100846
3 *9661:Z 0.0020424
4 *465:25 0.0161222
5 *465:23 0.0161222
6 *465:8 0.00305086
7 *465:8 *469:8 0.0125393
8 *433:18 *465:8 0.001117
*RES
1 *9661:Z *465:8 46.752 
2 *465:8 *9632:A[2] 11.624 
3 *9632:A[2] *465:23 9 
4 *465:23 *465:25 147.576 
5 *465:25 *9634:A[2] 9 
*END

*D_NET *466 0.0539269
*CONN
*I *9635:A[2] I *D gf180mcu_fd_ip_sram__sram256x8m8wm1
*I *9633:A[2] I *D gf180mcu_fd_ip_sram__sram256x8m8wm1
*I *9662:Z O *D gf180mcu_fd_sc_mcu7t5v0__buf_8
*CAP
1 *9635:A[2] 0
2 *9633:A[2] 0.00065786
3 *9662:Z 0.000863314
4 *466:34 0.0160227
5 *466:32 0.0160227
6 *466:14 0.00152117
7 *466:14 *9633:D[1] 0.000172079
8 *466:14 *468:18 0.000851354
9 *9360:A1 *466:14 0.00128579
10 *9471:I *466:14 0.00279346
11 *9664:I *466:14 0.000150447
12 *258:53 *466:14 0.000765248
13 *258:62 *466:14 0.00341548
14 *455:18 *9633:A[2] 0
15 *455:18 *466:14 0.00940526
16 *455:30 *9633:A[2] 0
*RES
1 *9662:Z *466:14 48.728 
2 *466:14 *9633:A[2] 18.804 
3 *9633:A[2] *466:32 9 
4 *466:32 *466:34 147.576 
5 *466:34 *9635:A[2] 9 
*END

*D_NET *467 0.0517921
*CONN
*I *9634:A[1] I *D gf180mcu_fd_ip_sram__sram256x8m8wm1
*I *9632:A[1] I *D gf180mcu_fd_ip_sram__sram256x8m8wm1
*I *9663:Z O *D gf180mcu_fd_sc_mcu7t5v0__buf_8
*CAP
1 *9634:A[1] 0
2 *9632:A[1] 0.00068846
3 *9663:Z 0.0022564
4 *467:25 0.0161046
5 *467:23 0.0161046
6 *467:8 0.00294486
7 *332:45 *467:8 0.00108205
8 *454:10 *467:8 0.0126111
*RES
1 *9663:Z *467:8 46.96 
2 *467:8 *9632:A[1] 9.752 
3 *9632:A[1] *467:23 9 
4 *467:23 *467:25 147.576 
5 *467:25 *9634:A[1] 9 
*END

*D_NET *468 0.0490552
*CONN
*I *9635:A[1] I *D gf180mcu_fd_ip_sram__sram256x8m8wm1
*I *9633:A[1] I *D gf180mcu_fd_ip_sram__sram256x8m8wm1
*I *9664:Z O *D gf180mcu_fd_sc_mcu7t5v0__buf_8
*CAP
1 *9635:A[1] 0
2 *9633:A[1] 0.000578084
3 *9664:Z 0.00178939
4 *468:38 0.0160294
5 *468:36 0.0160294
6 *468:18 0.00236747
7 *468:18 *9358:A1 0.000672495
8 *9360:A1 *468:18 0.00129776
9 *258:53 *468:18 0.00161694
10 *258:62 *468:18 0.000795773
11 *455:18 *468:18 0.00702719
12 *466:14 *468:18 0.000851354
*RES
1 *9664:Z *468:18 47.12 
2 *468:18 *9633:A[1] 18.388 
3 *9633:A[1] *468:36 9 
4 *468:36 *468:38 147.576 
5 *468:38 *9635:A[1] 9 
*END

*D_NET *469 0.0535382
*CONN
*I *9634:A[0] I *D gf180mcu_fd_ip_sram__sram256x8m8wm1
*I *9632:A[0] I *D gf180mcu_fd_ip_sram__sram256x8m8wm1
*I *9665:Z O *D gf180mcu_fd_sc_mcu7t5v0__buf_8
*CAP
1 *9634:A[0] 0
2 *9632:A[0] 0.00107349
3 *9665:Z 0.00222638
4 *469:25 0.0160822
5 *469:23 0.0160822
6 *469:8 0.00329987
7 *9661:I *469:8 0.000202879
8 *372:28 *469:8 0.0020318
9 *433:18 *469:8 0
10 *465:8 *469:8 0.0125393
*RES
1 *9665:Z *469:8 47.168 
2 *469:8 *9632:A[0] 11.832 
3 *9632:A[0] *469:23 9 
4 *469:23 *469:25 147.576 
5 *469:25 *9634:A[0] 9 
*END

*D_NET *470 0.0423958
*CONN
*I *9635:A[0] I *D gf180mcu_fd_ip_sram__sram256x8m8wm1
*I *9633:A[0] I *D gf180mcu_fd_ip_sram__sram256x8m8wm1
*I *9666:Z O *D gf180mcu_fd_sc_mcu7t5v0__buf_8
*CAP
1 *9635:A[0] 0
2 *9633:A[0] 0
3 *9666:Z 0.00256386
4 *470:23 0.0160227
5 *470:14 0.0173463
6 *470:12 0.00388745
7 *9360:A1 *470:12 1.36139e-05
8 *9642:I *470:12 0.00199871
9 *9654:I *470:12 0
10 *428:8 *470:12 0.000281331
11 *428:53 *470:12 0.000281805
*RES
1 *9666:Z *470:12 45.74 
2 *470:12 *470:14 10.296 
3 *470:14 *9633:A[0] 9 
4 *470:14 *470:23 147.576 
5 *470:23 *9635:A[0] 9 
*END

*D_NET *471 0.0184936
*CONN
*I *9252:A1 I *D gf180mcu_fd_sc_mcu7t5v0__nand3_1
*I *9389:I0 I *D gf180mcu_fd_sc_mcu7t5v0__mux2_2
*I *9246:A1 I *D gf180mcu_fd_sc_mcu7t5v0__nor2_1
*I *9485:Z O *D gf180mcu_fd_sc_mcu7t5v0__dlyd_1
*CAP
1 *9252:A1 0.000650355
2 *9389:I0 0.00011435
3 *9246:A1 0.000295917
4 *9485:Z 0.000644746
5 *471:21 0.000832527
6 *471:10 0.00100848
7 *9246:A1 *9246:A2 0.000373979
8 *9252:A1 *473:24 0.00066501
9 *471:10 *475:16 0.00206454
10 tl_o[24] *9252:A1 0.000572736
11 tl_o[50] *471:10 0.00183824
12 tl_o[53] *471:10 0.000310544
13 tl_o[64] *471:10 0
14 *9253:A1 *9252:A1 0.000106647
15 *9255:B *9252:A1 1.98127e-05
16 *9282:A1 *9252:A1 1.23618e-05
17 *9282:A2 *9252:A1 0.000113773
18 *9282:A2 *471:10 0.000570876
19 *9282:A2 *471:21 0.000937868
20 *9388:A2 *471:10 0.00019118
21 *9389:S *9252:A1 0.00037167
22 *9389:S *471:10 0.000427061
23 *9389:S *471:21 0.000922938
24 *9473:I *9252:A1 0.000241473
25 *9578:I *9252:A1 0.00318166
26 *9580:I *471:10 0.000103788
27 *9666:I *9252:A1 0.000282758
28 *308:12 *9246:A1 0.00115739
29 *329:12 *9389:I0 4.78732e-05
30 *375:92 *9389:I0 4.78732e-05
31 *399:18 *471:10 2.88268e-06
32 *421:79 *471:10 0.000382248
*RES
1 *9485:Z *471:10 19.608 
2 *471:10 *9246:A1 12.432 
3 *471:10 *471:21 2.6 
4 *471:21 *9389:I0 9.832 
5 *471:21 *9252:A1 20.44 
*END

*D_NET *472 0.0234229
*CONN
*I *9251:A1 I *D gf180mcu_fd_sc_mcu7t5v0__nor2_1
*I *9247:A1 I *D gf180mcu_fd_sc_mcu7t5v0__and3_1
*I *9390:I0 I *D gf180mcu_fd_sc_mcu7t5v0__mux2_2
*I *9248:A1 I *D gf180mcu_fd_sc_mcu7t5v0__nand3_1
*I *9486:Z O *D gf180mcu_fd_sc_mcu7t5v0__dlyd_1
*CAP
1 *9251:A1 0.000839423
2 *9247:A1 0.000274261
3 *9390:I0 0.000518466
4 *9248:A1 0.000206415
5 *9486:Z 0.000158432
6 *472:36 0.00135927
7 *472:10 0.000903337
8 *472:6 0.000582472
9 *9247:A1 *9247:A2 0.00273148
10 *9247:A1 *9597:I 0.00122561
11 *9251:A1 *9251:A2 9.20244e-05
12 *9251:A1 *9391:I1 0.000319051
13 *9251:A1 *473:24 0.000107033
14 *9251:A1 *474:44 7.67467e-05
15 *9251:A1 *495:14 0.00273266
16 *9390:I0 *9597:I 2.36855e-05
17 *472:6 *9283:A1 4.11759e-05
18 *472:10 *9597:I 3.35843e-06
19 *472:36 *9283:A1 0.000174769
20 *472:36 *9597:I 0.00179342
21 tl_o[53] *9247:A1 4.29362e-05
22 *9248:A3 *472:6 5.72104e-05
23 *9252:A3 *9251:A1 0.000734618
24 *9255:A1 *9248:A1 6.07902e-05
25 *9255:A1 *472:10 0.000398453
26 *9255:B *9247:A1 0.0031451
27 *9390:S *9390:I0 1.84221e-05
28 *9408:D *9390:I0 0.0004162
29 *9438:CLK *472:6 0.00016585
30 *9438:CLK *472:36 0.00016723
31 *9444:D *9251:A1 0.00117227
32 *9445:D *9251:A1 0
33 *9572:I *9247:A1 0.000507634
34 *9578:I *9251:A1 4.74266e-06
35 *329:26 *9247:A1 0.000379766
36 *329:26 *472:36 0.000767442
37 *371:26 *9251:A1 1.9026e-05
38 *412:64 *472:10 5.79995e-05
39 *412:79 *9390:I0 0.000100177
40 *419:14 *9248:A1 0.000136316
41 *419:14 *9390:I0 2.69247e-05
42 *445:14 *9390:I0 0.000581704
43 *445:14 *472:10 0.000298945
*RES
1 *9486:Z *472:6 5.852 
2 *472:6 *472:10 6.268 
3 *472:10 *9248:A1 10.352 
4 *472:10 *9390:I0 13.368 
5 *472:6 *472:36 10.74 
6 *472:36 *9247:A1 21.168 
7 *472:36 *9251:A1 28.92 
*END

*D_NET *473 0.019079
*CONN
*I *9254:A1 I *D gf180mcu_fd_sc_mcu7t5v0__nand3_1
*I *9487:Z O *D gf180mcu_fd_sc_mcu7t5v0__dlyd_1
*CAP
1 *9254:A1 0
2 *9487:Z 0.0030504
3 *473:24 0.0030504
4 *473:24 *9137:A1 0
5 *473:24 *9137:A2 2.79913e-05
6 *473:24 *9390:I1 8.2153e-05
7 *473:24 *9391:I1 0.000153225
8 *473:24 *495:14 0.00314333
9 tl_o[24] *473:24 0.0002458
10 tl_o[6] *473:24 0.000494708
11 *9251:A1 *473:24 0.000107033
12 *9252:A1 *473:24 0.00066501
13 *9252:A3 *473:24 1.07369e-05
14 *9253:A1 *473:24 0.00425887
15 *9255:A2 *473:24 0.000256274
16 *9262:A2 *473:24 2.04597e-06
17 *9282:A1 *473:24 0.000440509
18 *9436:CLK *473:24 1.51046e-05
19 *9486:I *473:24 0.000509988
20 *9578:I *473:24 7.09329e-05
21 *9666:I *473:24 0.000410279
22 *325:10 *473:24 0.000454633
23 *369:45 *473:24 0.000248469
24 *371:18 *473:24 2.84264e-05
25 *371:26 *473:24 2.87344e-06
26 *375:92 *473:24 0.00124601
27 *380:43 *473:24 0.000103788
*RES
1 *9487:Z *473:24 49.692 
2 *473:24 *9254:A1 4.5 
*END

*D_NET *474 0.0161239
*CONN
*I *9251:A2 I *D gf180mcu_fd_sc_mcu7t5v0__nor2_1
*I *9391:I0 I *D gf180mcu_fd_sc_mcu7t5v0__mux2_2
*I *9247:A2 I *D gf180mcu_fd_sc_mcu7t5v0__and3_1
*I *9248:A2 I *D gf180mcu_fd_sc_mcu7t5v0__nand3_1
*I *9488:Z O *D gf180mcu_fd_sc_mcu7t5v0__dlyd_1
*CAP
1 *9251:A2 0.000232086
2 *9391:I0 0
3 *9247:A2 0.000462054
4 *9248:A2 0.000667795
5 *9488:Z 0
6 *474:44 0.00178005
7 *474:19 0.00224718
8 *474:4 0.000904953
9 *9247:A2 *9597:I 0.000257927
10 *9248:A2 *9599:I 0
11 *9251:A2 *495:14 1.36398e-06
12 *474:44 *9391:I1 0.000339856
13 *474:44 *9597:I 0.000408929
14 tl_o[6] *9248:A2 3.41668e-05
15 tl_o[6] *474:19 0.000136257
16 *9186:A1 *9251:A2 0.000343539
17 *9247:A1 *9247:A2 0.00273148
18 *9251:A1 *9251:A2 9.20244e-05
19 *9251:A1 *474:44 7.67467e-05
20 *9253:A1 *474:44 0.000183852
21 *9255:A2 *9247:A2 0.000473951
22 *9391:S *474:44 1.05579e-05
23 *9436:CLK *474:19 0.000824908
24 *9442:CLK *9251:A2 0
25 *9499:I *9248:A2 0.00135255
26 *9572:I *9247:A2 3.646e-05
27 *4:25 *9247:A2 0.00204204
28 *4:25 *474:44 0.000380839
29 *367:29 *9251:A2 0.000102348
*RES
1 *9488:Z *474:4 4.5 
2 *474:4 *9248:A2 21.924 
3 *474:4 *474:19 6.892 
4 *474:19 *9247:A2 19.296 
5 *474:19 *474:44 24.004 
6 *474:44 *9391:I0 4.5 
7 *474:44 *9251:A2 15.58 
*END

*D_NET *475 0.023824
*CONN
*I *9252:A2 I *D gf180mcu_fd_sc_mcu7t5v0__nand3_1
*I *9392:I0 I *D gf180mcu_fd_sc_mcu7t5v0__mux2_2
*I *9246:A2 I *D gf180mcu_fd_sc_mcu7t5v0__nor2_1
*I *9489:Z O *D gf180mcu_fd_sc_mcu7t5v0__dlyd_1
*CAP
1 *9252:A2 0.00107511
2 *9392:I0 3.5718e-05
3 *9246:A2 0.000477709
4 *9489:Z 0.000506643
5 *475:37 0.0012121
6 *475:16 0.00108562
7 *9252:A2 *9138:A3 0.000412695
8 *9252:A2 *9391:I1 0.000634459
9 *9252:A2 *9596:I 0.000631716
10 *9252:A2 *506:20 0.000152316
11 *9252:A2 *602:12 0.00347529
12 *9252:A2 *613:22 0.000174813
13 tl_o[25] *9252:A2 4.78801e-05
14 tl_o[53] *475:16 0.00010323
15 tl_o[56] *475:16 3.35189e-05
16 tl_o[58] *475:16 0.000355746
17 tl_o[6] *475:16 0.000179953
18 *9138:A4 *9252:A2 0
19 *9246:A1 *9246:A2 0.000373979
20 *9253:A1 *9252:A2 0.000634459
21 *9263:A2 *475:16 0.000179413
22 *9263:A2 *475:37 0.00136175
23 *9389:S *9246:A2 0.000179413
24 *9473:I *9246:A2 0.000188241
25 *9473:I *9252:A2 0.000294461
26 *9528:I *475:16 0.000355286
27 *9584:I *9252:A2 0.000107648
28 *295:24 *475:16 0.000188241
29 *295:24 *475:37 0.00134056
30 *308:12 *9246:A2 2.68257e-05
31 *329:12 *9252:A2 0.000742994
32 *329:12 *9392:I0 0.000103788
33 *375:92 *9252:A2 0.000136127
34 *375:92 *9392:I0 1.40331e-05
35 *399:18 *9246:A2 0.00236992
36 *421:41 *475:16 0.000449558
37 *421:54 *475:16 0.000269664
38 *421:79 *9246:A2 0.00101629
39 *421:79 *475:16 0.000832336
40 *471:10 *475:16 0.00206454
*RES
1 *9489:Z *475:16 27.048 
2 *475:16 *9246:A2 25.384 
3 *475:16 *475:37 8.14 
4 *475:37 *9392:I0 4.812 
5 *475:37 *9252:A2 38.412 
*END

*D_NET *476 0.00285843
*CONN
*I *9273:A1 I *D gf180mcu_fd_sc_mcu7t5v0__and2_1
*I *9490:Z O *D gf180mcu_fd_sc_mcu7t5v0__dlyd_1
*CAP
1 *9273:A1 0.00142922
2 *9490:Z 0.00142922
*RES
1 *9490:Z *9273:A1 28.608 
*END

*D_NET *477 0.00304397
*CONN
*I *9274:A1 I *D gf180mcu_fd_sc_mcu7t5v0__and2_1
*I *9491:Z O *D gf180mcu_fd_sc_mcu7t5v0__dlyd_1
*CAP
1 *9274:A1 0.00141636
2 *9491:Z 0.00141636
3 *9274:A1 *9275:A1 0
4 *9492:I *9274:A1 0.000211253
*RES
1 *9491:Z *9274:A1 28.608 
*END

*D_NET *478 0.00188161
*CONN
*I *9275:A1 I *D gf180mcu_fd_sc_mcu7t5v0__and2_1
*I *9492:Z O *D gf180mcu_fd_sc_mcu7t5v0__dlyd_1
*CAP
1 *9275:A1 0.000940804
2 *9492:Z 0.000940804
3 *9274:A1 *9275:A1 0
*RES
1 *9492:Z *9275:A1 15.344 
*END

*D_NET *479 0.00180888
*CONN
*I *9276:A1 I *D gf180mcu_fd_sc_mcu7t5v0__and2_1
*I *9493:Z O *D gf180mcu_fd_sc_mcu7t5v0__dlyd_1
*CAP
1 *9276:A1 0.000904438
2 *9493:Z 0.000904438
*RES
1 *9493:Z *9276:A1 15.032 
*END

*D_NET *480 0.00486025
*CONN
*I *9277:A1 I *D gf180mcu_fd_sc_mcu7t5v0__and2_1
*I *9494:Z O *D gf180mcu_fd_sc_mcu7t5v0__dlyd_1
*CAP
1 *9277:A1 0.00119817
2 *9494:Z 0.00119817
3 *411:12 *9277:A1 0
4 *444:31 *9277:A1 0.00246391
*RES
1 *9494:Z *9277:A1 29.648 
*END

*D_NET *481 0.002392
*CONN
*I *9278:A1 I *D gf180mcu_fd_sc_mcu7t5v0__and2_1
*I *9495:Z O *D gf180mcu_fd_sc_mcu7t5v0__dlyd_1
*CAP
1 *9278:A1 0.001196
2 *9495:Z 0.001196
*RES
1 *9495:Z *9278:A1 16.904 
*END

*D_NET *482 0.00148558
*CONN
*I *9279:A1 I *D gf180mcu_fd_sc_mcu7t5v0__and2_1
*I *9496:Z O *D gf180mcu_fd_sc_mcu7t5v0__dlyd_1
*CAP
1 *9279:A1 0.000742788
2 *9496:Z 0.000742788
3 *449:16 *9279:A1 0
*RES
1 *9496:Z *9279:A1 13.888 
*END

*D_NET *483 0.00565438
*CONN
*I *9280:A1 I *D gf180mcu_fd_sc_mcu7t5v0__and2_1
*I *9497:Z O *D gf180mcu_fd_sc_mcu7t5v0__dlyd_1
*CAP
1 *9280:A1 0.000992132
2 *9497:Z 0.000992132
3 *9280:A1 *9217:A2 1.81425e-05
4 *9280:A1 *9220:A1 0.00149991
5 *9280:A1 *9232:A2 0.00012524
6 *9280:A1 *594:32 0
7 *9280:A1 *594:38 2.19717e-05
8 tl_o[60] *9280:A1 3.39322e-05
9 *9232:A1 *9280:A1 1.26329e-05
10 *9341:I0 *9280:A1 0
11 *9496:I *9280:A1 0.000135147
12 *9574:I *9280:A1 0.000262998
13 *328:20 *9280:A1 0.000116578
14 *372:18 *9280:A1 1.12609e-05
15 *396:18 *9280:A1 2.14569e-05
16 *438:12 *9280:A1 0.000417934
17 *444:31 *9280:A1 0.000907631
18 *460:30 *9280:A1 8.52736e-05
*RES
1 *9497:Z *9280:A1 29.232 
*END

*D_NET *484 0.0188708
*CONN
*I *9254:A2 I *D gf180mcu_fd_sc_mcu7t5v0__nand3_1
*I *9498:Z O *D gf180mcu_fd_sc_mcu7t5v0__dlyd_1
*CAP
1 *9254:A2 4.3804e-05
2 *9498:Z 0.0020109
3 *484:22 0.0020547
4 *9254:A2 *594:117 0.000245726
5 *484:22 *9135:A1 0.000402874
6 *484:22 *9591:I 8.29199e-05
7 *484:22 *512:16 0.00288265
8 *484:22 *543:16 0.00179578
9 *484:22 *594:117 0.000406476
10 *484:22 *594:135 0.00018553
11 *484:22 *594:146 0.000543132
12 *484:22 *594:161 0.000614897
13 tl_o[27] *484:22 0
14 tl_o[49] *484:22 0.000432616
15 tl_o[56] *484:22 0.000808361
16 *9253:A1 *484:22 0.000647929
17 *9255:A2 *484:22 0.00263051
18 *9263:A2 *484:22 9.92883e-05
19 *9263:A3 *484:22 0.000216721
20 *9436:D *484:22 0.000408992
21 *9439:D *484:22 0.000124423
22 *9446:D *484:22 0.000225767
23 *9478:I *484:22 0.000164691
24 *9488:I *484:22 2.64063e-05
25 *9536:I *484:22 0.000104313
26 *9576:I *484:22 9.76253e-05
27 *9579:I *484:22 0.00123107
28 *325:10 *484:22 2.22621e-05
29 *375:94 *484:22 8.39284e-05
30 *380:43 *9254:A2 0.000236426
31 *460:150 *484:22 4.00646e-05
*RES
1 *9498:Z *484:22 47.328 
2 *484:22 *9254:A2 9.728 
*END

*D_NET *485 0.0136519
*CONN
*I *9283:A1 I *D gf180mcu_fd_sc_mcu7t5v0__and2_1
*I *9499:Z O *D gf180mcu_fd_sc_mcu7t5v0__dlyd_1
*CAP
1 *9283:A1 0.00108297
2 *9499:Z 0.00108297
3 *9283:A1 *9347:A1 1.32276e-05
4 tl_o[25] *9283:A1 0.000585288
5 tl_o[58] *9283:A1 0.000328611
6 tl_o[65] *9283:A1 0.000313488
7 *9248:A3 *9283:A1 0.000244674
8 *9385:I0 *9283:A1 0.00135741
9 *9438:CLK *9283:A1 5.87155e-05
10 *9443:D *9283:A1 0.000837901
11 *9443:CLK *9283:A1 1.13283e-05
12 *9475:I *9283:A1 0.000731452
13 *9581:I *9283:A1 0.00237158
14 *9639:I *9283:A1 0.00192805
15 *375:92 *9283:A1 9.07598e-05
16 *380:29 *9283:A1 0.00216377
17 *445:14 *9283:A1 0.000233796
18 *472:6 *9283:A1 4.11759e-05
19 *472:36 *9283:A1 0.000174769
*RES
1 *9499:Z *9283:A1 41.4 
*END

*D_NET *486 0.00208817
*CONN
*I *9284:A1 I *D gf180mcu_fd_sc_mcu7t5v0__and2_1
*I *9500:Z O *D gf180mcu_fd_sc_mcu7t5v0__dlyd_1
*CAP
1 *9284:A1 0.000487845
2 *9500:Z 0.000487845
3 *9284:A1 *9633:D[2] 3.22532e-06
4 *9285:A2 *9284:A1 0
5 *9353:I0 *9284:A1 0.000477837
6 *9411:CLK *9284:A1 0
7 *380:8 *9284:A1 9.74174e-05
8 *418:33 *9284:A1 0.000499229
9 *448:12 *9284:A1 3.47771e-05
*RES
1 *9500:Z *9284:A1 13.368 
*END

*D_NET *487 0.0024746
*CONN
*I *9285:A1 I *D gf180mcu_fd_sc_mcu7t5v0__and2_1
*I *9501:Z O *D gf180mcu_fd_sc_mcu7t5v0__dlyd_1
*CAP
1 *9285:A1 0.000856916
2 *9501:Z 0.000856916
3 *380:152 *9285:A1 0.000526647
4 *418:35 *9285:A1 0.000234122
*RES
1 *9501:Z *9285:A1 25.488 
*END

*D_NET *488 0.00244107
*CONN
*I *9286:A1 I *D gf180mcu_fd_sc_mcu7t5v0__and2_1
*I *9502:Z O *D gf180mcu_fd_sc_mcu7t5v0__dlyd_1
*CAP
1 *9286:A1 0.00122054
2 *9502:Z 0.00122054
*RES
1 *9502:Z *9286:A1 16.696 
*END

*D_NET *489 0.00227034
*CONN
*I *9287:A1 I *D gf180mcu_fd_sc_mcu7t5v0__and2_1
*I *9503:Z O *D gf180mcu_fd_sc_mcu7t5v0__dlyd_1
*CAP
1 *9287:A1 0.00113517
2 *9503:Z 0.00113517
*RES
1 *9503:Z *9287:A1 16.488 
*END

*D_NET *490 0.00176039
*CONN
*I *9288:A1 I *D gf180mcu_fd_sc_mcu7t5v0__and2_1
*I *9504:Z O *D gf180mcu_fd_sc_mcu7t5v0__dlyd_1
*CAP
1 *9288:A1 0.000880194
2 *9504:Z 0.000880194
3 *9288:A1 *9289:A1 0
*RES
1 *9504:Z *9288:A1 14.824 
*END

*D_NET *491 0.00391188
*CONN
*I *9289:A1 I *D gf180mcu_fd_sc_mcu7t5v0__and2_1
*I *9505:Z O *D gf180mcu_fd_sc_mcu7t5v0__dlyd_1
*CAP
1 *9289:A1 0.00130384
2 *9505:Z 0.00130384
3 *9288:A1 *9289:A1 0
4 *9504:I *9289:A1 1.84122e-05
5 *447:45 *9289:A1 0.00128579
*RES
1 *9505:Z *9289:A1 28.296 
*END

*D_NET *492 0.0026211
*CONN
*I *9290:A1 I *D gf180mcu_fd_sc_mcu7t5v0__and2_1
*I *9506:Z O *D gf180mcu_fd_sc_mcu7t5v0__dlyd_1
*CAP
1 *9290:A1 0.00125326
2 *9506:Z 0.00125326
3 *447:45 *9290:A1 0.000114578
*RES
1 *9506:Z *9290:A1 26.736 
*END

*D_NET *493 0.00561483
*CONN
*I *9293:A1 I *D gf180mcu_fd_sc_mcu7t5v0__and2_1
*I *9507:Z O *D gf180mcu_fd_sc_mcu7t5v0__dlyd_1
*CAP
1 *9293:A1 0.00280742
2 *9507:Z 0.00280742
*RES
1 *9507:Z *9293:A1 41.088 
*END

*D_NET *494 0.0133809
*CONN
*I *9294:A1 I *D gf180mcu_fd_sc_mcu7t5v0__and2_1
*I *9508:Z O *D gf180mcu_fd_sc_mcu7t5v0__dlyd_1
*CAP
1 *9294:A1 0.00132177
2 *9508:Z 0.00132177
3 *9294:A1 *9295:A1 0
4 *9294:A1 *497:12 0
5 *9294:A1 *498:12 0.00987683
6 *9293:A2 *9294:A1 0.000860548
*RES
1 *9508:Z *9294:A1 44 
*END

*D_NET *495 0.0208164
*CONN
*I *9253:A2 I *D gf180mcu_fd_sc_mcu7t5v0__nor2_1
*I *9509:Z O *D gf180mcu_fd_sc_mcu7t5v0__dlyd_1
*CAP
1 *9253:A2 0.000984874
2 *9509:Z 0.00120787
3 *495:14 0.00219275
4 *9253:A2 *9269:A1 0.000631223
5 *9253:A2 *9633:D[0] 0.001107
6 *9138:A1 *9253:A2 0
7 *9251:A1 *495:14 0.00273266
8 *9251:A2 *495:14 1.36398e-06
9 *9252:A3 *495:14 0.000135468
10 *9255:A1 *495:14 0.000265634
11 *9444:D *495:14 7.74912e-05
12 *9471:I *9253:A2 0.00751946
13 *9662:I *495:14 7.0919e-05
14 *9664:I *9253:A2 0.000472337
15 *412:64 *495:14 0.000274044
16 *473:24 *495:14 0.00314333
*RES
1 *9509:Z *495:14 32.768 
2 *495:14 *9253:A2 28.864 
*END

*D_NET *496 0.00727804
*CONN
*I *9295:A1 I *D gf180mcu_fd_sc_mcu7t5v0__and2_1
*I *9510:Z O *D gf180mcu_fd_sc_mcu7t5v0__dlyd_1
*CAP
1 *9295:A1 0.00322487
2 *9510:Z 0.00322487
3 *9295:A1 *9634:D[2] 9.92582e-05
4 *9295:A1 *9634:D[0] 0.000696844
5 *9294:A1 *9295:A1 0
6 *330:60 *9295:A1 3.22108e-05
*RES
1 *9510:Z *9295:A1 48.576 
*END

*D_NET *497 0.0135004
*CONN
*I *9296:A1 I *D gf180mcu_fd_sc_mcu7t5v0__and2_1
*I *9511:Z O *D gf180mcu_fd_sc_mcu7t5v0__dlyd_1
*CAP
1 *9296:A1 8.16208e-05
2 *9511:Z 0.00305455
3 *497:12 0.00313617
4 *497:12 *9147:A1 0.00124083
5 *497:12 *9634:D[1] 0.000123748
6 *9293:A2 *497:12 0.000661561
7 *9294:A1 *497:12 0
8 *330:60 *9296:A1 4.18157e-05
9 *330:60 *497:12 0.00511606
10 *330:64 *497:12 4.41041e-05
*RES
1 *9511:Z *497:12 49.664 
2 *497:12 *9296:A1 9.52 
*END

*D_NET *498 0.0451814
*CONN
*I *9297:A1 I *D gf180mcu_fd_sc_mcu7t5v0__and2_1
*I *9512:Z O *D gf180mcu_fd_sc_mcu7t5v0__dlyd_1
*CAP
1 *9297:A1 0.000211159
2 *9512:Z 0.000938444
3 *498:12 0.00832177
4 *498:10 0.00904906
5 *498:12 *9151:A1 0.000234122
6 *498:12 *9155:A1 0
7 *498:12 *9159:A1 0.000271172
8 *498:12 *9634:D[3] 0.0104922
9 *498:12 *9634:D[2] 0.000511447
10 *498:12 *9634:D[1] 0.000876884
11 *9293:A2 *498:12 3.29691e-05
12 *9294:A1 *498:12 0.00987683
13 *330:44 *9297:A1 3.22108e-05
14 *330:46 *498:12 0.00419943
15 *330:64 *498:12 0.000133705
*RES
1 *9512:Z *498:10 15.24 
2 *498:10 *498:12 118.04 
3 *498:12 *9297:A1 10.144 
*END

*D_NET *499 0.0330378
*CONN
*I *9298:A1 I *D gf180mcu_fd_sc_mcu7t5v0__and2_1
*I *9513:Z O *D gf180mcu_fd_sc_mcu7t5v0__dlyd_1
*CAP
1 *9298:A1 0
2 *9513:Z 0.000117866
3 *499:12 0.0164011
4 *499:10 0.0165189
*RES
1 *9513:Z *499:10 14.436 
2 *499:10 *499:12 150.904 
3 *499:12 *9298:A1 13.5 
*END

*D_NET *500 0.0361107
*CONN
*I *9299:A1 I *D gf180mcu_fd_sc_mcu7t5v0__and2_1
*I *9514:Z O *D gf180mcu_fd_sc_mcu7t5v0__dlyd_1
*CAP
1 *9299:A1 0.000178102
2 *9514:Z 0
3 *500:10 0.016719
4 *500:8 0.0165409
5 *9299:A1 *556:10 0.00070994
6 *330:10 *9299:A1 0.00196277
*RES
1 *9514:Z *500:8 13.5 
2 *500:8 *500:10 152.36 
3 *500:10 *9299:A1 18.388 
*END

*D_NET *501 0.0344457
*CONN
*I *9300:A1 I *D gf180mcu_fd_sc_mcu7t5v0__and2_1
*I *9515:Z O *D gf180mcu_fd_sc_mcu7t5v0__dlyd_1
*CAP
1 *9300:A1 0.000321439
2 *9515:Z 0.000592736
3 *501:12 0.0166301
4 *501:10 0.0169014
*RES
1 *9515:Z *501:10 18.804 
2 *501:10 *501:12 134.888 
3 *501:12 *9300:A1 16.308 
*END

*D_NET *502 0.0361514
*CONN
*I *9303:A1 I *D gf180mcu_fd_sc_mcu7t5v0__and2_1
*I *9516:Z O *D gf180mcu_fd_sc_mcu7t5v0__dlyd_1
*CAP
1 *9303:A1 0.00140112
2 *9516:Z 0.00109892
3 *502:12 0.0169582
4 *502:10 0.016656
5 *9516:I *502:10 3.71243e-05
*RES
1 *9516:Z *502:10 23.588 
2 *502:10 *502:12 128.44 
3 *502:12 *9303:A1 33.212 
*END

*D_NET *503 0.052971
*CONN
*I *9304:A1 I *D gf180mcu_fd_sc_mcu7t5v0__and2_1
*I *9517:Z O *D gf180mcu_fd_sc_mcu7t5v0__dlyd_1
*CAP
1 *9304:A1 6.45051e-05
2 *9517:Z 0.000198551
3 *503:12 0.0251325
4 *503:10 0.0252665
5 *503:12 *578:13 0.0021232
6 *331:21 *9304:A1 0.000185717
*RES
1 *9517:Z *503:10 14.436 
2 *503:10 *503:12 152.36 
3 *503:12 *9304:A1 14.02 
*END

*D_NET *504 0.0328636
*CONN
*I *9305:A1 I *D gf180mcu_fd_sc_mcu7t5v0__and2_1
*I *9518:Z O *D gf180mcu_fd_sc_mcu7t5v0__dlyd_1
*CAP
1 *9305:A1 0
2 *9518:Z 7.26339e-05
3 *504:12 0.0163592
4 *504:10 0.0164318
*RES
1 *9518:Z *504:10 14.02 
2 *504:10 *504:12 149.448 
3 *504:12 *9305:A1 13.5 
*END

*D_NET *505 0.0538025
*CONN
*I *9306:A1 I *D gf180mcu_fd_sc_mcu7t5v0__and2_1
*I *9519:Z O *D gf180mcu_fd_sc_mcu7t5v0__dlyd_1
*CAP
1 *9306:A1 4.38467e-05
2 *9519:Z 0.000848964
3 *505:12 0.00623493
4 *505:10 0.00704005
5 *9306:A1 *9635:D[3] 6.18411e-06
6 *505:12 *9208:A1 0
7 *505:12 *9635:D[6] 0.00663846
8 *505:12 *9635:D[5] 0.00693156
9 *505:12 *9635:D[4] 0.00274218
10 *505:12 *507:10 0
11 *505:12 *508:14 0.0106535
12 *9198:A1 *505:12 0.0013693
13 *9310:A2 *505:12 0.00487725
14 *331:50 *505:12 0.000281447
15 *331:52 *505:12 0.00598438
16 *331:67 *505:12 6.52129e-05
17 *331:80 *505:12 8.52783e-05
*RES
1 *9519:Z *505:10 14.408 
2 *505:10 *505:12 118.248 
3 *505:12 *9306:A1 9.312 
*END

*D_NET *506 0.0213152
*CONN
*I *9449:RN I *D gf180mcu_fd_sc_mcu7t5v0__dffrnq_1
*I *9451:RN I *D gf180mcu_fd_sc_mcu7t5v0__dffrnq_1
*I *9450:RN I *D gf180mcu_fd_sc_mcu7t5v0__dffrnq_1
*I *9448:RN I *D gf180mcu_fd_sc_mcu7t5v0__dffrnq_1
*I *9520:Z O *D gf180mcu_fd_sc_mcu7t5v0__dlyd_1
*CAP
1 *9449:RN 0.000660643
2 *9451:RN 0.00138859
3 *9450:RN 0
4 *9448:RN 0
5 *9520:Z 0.00198701
6 *506:33 0.00101718
7 *506:20 0.00227624
8 *9449:RN *9141:A1 0
9 *9449:RN *648:8 0.000654535
10 *9449:RN *648:10 0
11 *9451:RN *9375:I1 0.000510594
12 *9451:RN *614:23 9.75661e-05
13 *506:20 *602:12 2.50874e-05
14 *9138:A4 *506:20 0.000156397
15 *9249:A2 *506:20 0.000396623
16 *9250:B *506:20 3.44161e-06
17 *9252:A2 *506:20 0.000152316
18 *9254:A3 *506:20 0.000249958
19 *9262:A1 *506:20 0.000243153
20 *9262:A2 *506:20 0.00139942
21 *9262:B *506:20 1.35134e-05
22 *9263:A2 *506:20 4.03911e-05
23 *9265:A2 *506:20 0.000194973
24 *9265:A2 *506:33 0.000139186
25 *9265:A3 *506:20 0.000203739
26 *9265:A3 *506:33 0.000337769
27 *9312:A1 *9451:RN 0.000500772
28 *9375:S *9449:RN 0.000440611
29 *9471:I *506:20 0.000499111
30 *9473:I *506:20 0.000392365
31 *9478:I *506:20 0.000317027
32 *9573:I *506:20 0.0017305
33 *256:12 *9451:RN 0.000141323
34 *256:12 *506:33 0.000143639
35 *327:13 *9449:RN 0.000654535
36 *327:17 *9449:RN 8.078e-05
37 *366:16 *506:20 0.000265501
38 *367:29 *506:20 0.00052233
39 *375:69 *9449:RN 0.000216454
40 *375:69 *9451:RN 0.000749249
41 *375:69 *506:20 0.000175114
42 *375:69 *506:33 0.000157278
43 *407:20 *9451:RN 2.38773e-05
44 *407:57 *9449:RN 0.000175569
45 *407:57 *9451:RN 0.00167145
46 *438:119 *506:20 0.000309364
*RES
1 *9520:Z *506:20 44.548 
2 *506:20 *9448:RN 4.5 
3 *506:20 *506:33 3.952 
4 *506:33 *9450:RN 4.5 
5 *506:33 *9451:RN 23.796 
6 *9451:RN *9449:RN 25.696 
*END

*D_NET *507 0.0127365
*CONN
*I *9307:A1 I *D gf180mcu_fd_sc_mcu7t5v0__and2_1
*I *9521:Z O *D gf180mcu_fd_sc_mcu7t5v0__dlyd_1
*CAP
1 *9307:A1 0.000347974
2 *9521:Z 0
3 *507:10 0.00579974
4 *507:6 0.00545177
5 *9307:A1 *9635:D[6] 0.000747715
6 *507:10 *9204:A1 0.000389332
7 *507:10 *9310:A1 0
8 *507:10 *9635:D[6] 0
9 *9310:A2 *507:10 0
10 *331:80 *507:10 0
11 *505:12 *507:10 0
*RES
1 *9521:Z *507:6 9 
2 *507:6 *507:10 47.66 
3 *507:10 *9307:A1 7.62 
*END

*D_NET *508 0.0181332
*CONN
*I *9308:A1 I *D gf180mcu_fd_sc_mcu7t5v0__and2_1
*I *9522:Z O *D gf180mcu_fd_sc_mcu7t5v0__dlyd_1
*CAP
1 *9308:A1 0
2 *9522:Z 0.00105501
3 *508:14 0.00105501
4 *508:14 *9309:A1 0.00536966
5 *505:12 *508:14 0.0106535
*RES
1 *9522:Z *508:14 48.548 
2 *508:14 *9308:A1 4.5 
*END

*D_NET *509 0.00944805
*CONN
*I *9309:A1 I *D gf180mcu_fd_sc_mcu7t5v0__and2_1
*I *9523:Z O *D gf180mcu_fd_sc_mcu7t5v0__dlyd_1
*CAP
1 *9309:A1 0.0020392
2 *9523:Z 0.0020392
3 *9309:A1 *9208:A1 0
4 *508:14 *9309:A1 0.00536966
*RES
1 *9523:Z *9309:A1 49.096 
*END

*D_NET *510 0.00490854
*CONN
*I *9310:A1 I *D gf180mcu_fd_sc_mcu7t5v0__and2_1
*I *9524:Z O *D gf180mcu_fd_sc_mcu7t5v0__dlyd_1
*CAP
1 *9310:A1 0.00245427
2 *9524:Z 0.00245427
3 *507:10 *9310:A1 0
*RES
1 *9524:Z *9310:A1 37.968 
*END

*D_NET *511 0.0342077
*CONN
*I *9239:A2 I *D gf180mcu_fd_sc_mcu7t5v0__aoi22_1
*I *9259:B2 I *D gf180mcu_fd_sc_mcu7t5v0__oai22_1
*I *9374:I1 I *D gf180mcu_fd_sc_mcu7t5v0__mux2_2
*I *9244:A2 I *D gf180mcu_fd_sc_mcu7t5v0__oai31_1
*I *9271:A2 I *D gf180mcu_fd_sc_mcu7t5v0__nand2_1
*I *9525:Z O *D gf180mcu_fd_sc_mcu7t5v0__dlyd_1
*CAP
1 *9239:A2 0.000240567
2 *9259:B2 0.000876106
3 *9374:I1 0.00174769
4 *9244:A2 0
5 *9271:A2 0.00122778
6 *9525:Z 3.08751e-05
7 *511:55 0.00118833
8 *511:31 0.00222564
9 *511:23 0.000661536
10 *511:8 0.00137058
11 *9239:A2 *512:26 0.000235057
12 *9239:A2 *530:22 0.000376528
13 *9259:B2 *516:18 0.00141821
14 *9259:B2 *516:48 0.000559719
15 *9374:I1 *9231:A2 0.000428005
16 *9374:I1 *9243:A1 0.000160555
17 *9374:I1 *514:21 5.85695e-05
18 *9374:I1 *514:48 0.000681999
19 *9374:I1 *514:69 0.000832265
20 *9374:I1 *516:18 4.5412e-05
21 *511:8 *9226:A2 3.45498e-05
22 *511:31 *9244:A1 0.000389728
23 *511:31 *512:34 4.01571e-05
24 *511:31 *514:21 1.25888e-05
25 *511:31 *516:18 0.000472075
26 *511:55 *516:18 0.000309426
27 tl_o[0] *9259:B2 0.000258777
28 tl_o[8] *9374:I1 2.46325e-05
29 *9238:A1 *9271:A2 0.000266642
30 *9259:B1 *9259:B2 4.41346e-05
31 *9271:A1 *9271:A2 0.000245642
32 *9340:A1 *9271:A2 0
33 *9345:I0 *9259:B2 0.00250084
34 *9395:B *511:8 9.76253e-05
35 *9453:I *9374:I1 3.4596e-05
36 *9472:I *9239:A2 0.00202781
37 *248:8 *9239:A2 4.6157e-05
38 *300:24 *9239:A2 0.00201899
39 *300:24 *9271:A2 0.00516809
40 *300:24 *511:23 0.000233449
41 *300:24 *511:31 0.000107033
42 *401:20 *9374:I1 4.1608e-05
43 *402:18 *9271:A2 0.000259996
44 *407:20 *9374:I1 0
45 *408:14 *9259:B2 0.00011637
46 *408:25 *9259:B2 0.000236647
47 *408:25 *9374:I1 0.000163314
48 *408:25 *511:55 9.92195e-05
49 *416:14 *9259:B2 0.000199563
50 *424:8 *9271:A2 2.19245e-05
51 *438:12 *9271:A2 0.000682192
52 *438:29 *9271:A2 0.00149475
53 *438:29 *511:23 0.000954172
54 *438:29 *511:31 0.000114888
55 *441:57 *9374:I1 0
56 *449:32 *9271:A2 2.32102e-05
57 *460:18 *9271:A2 0.000216402
58 *460:22 *9271:A2 0.000885069
*RES
1 *9525:Z *511:8 9.312 
2 *511:8 *9271:A2 31.36 
3 *511:8 *511:23 2.6 
4 *511:23 *511:31 9.388 
5 *511:31 *9244:A2 4.5 
6 *511:31 *9374:I1 29.62 
7 *511:23 *511:55 5.436 
8 *511:55 *9259:B2 17.292 
9 *511:55 *9239:A2 20.156 
*END

*D_NET *512 0.0491334
*CONN
*I *9375:I1 I *D gf180mcu_fd_sc_mcu7t5v0__mux2_2
*I *9281:A2 I *D gf180mcu_fd_sc_mcu7t5v0__nand2_1
*I *9239:A1 I *D gf180mcu_fd_sc_mcu7t5v0__aoi22_1
*I *9244:A1 I *D gf180mcu_fd_sc_mcu7t5v0__oai31_1
*I *9256:A2 I *D gf180mcu_fd_sc_mcu7t5v0__nor2_1
*I *9258:A1 I *D gf180mcu_fd_sc_mcu7t5v0__aoi22_1
*I *9526:Z O *D gf180mcu_fd_sc_mcu7t5v0__dlyd_1
*CAP
1 *9375:I1 0.00106549
2 *9281:A2 5.32913e-06
3 *9239:A1 0
4 *9244:A1 0.000326387
5 *9256:A2 0
6 *9258:A1 0.000923699
7 *9526:Z 0.00117785
8 *512:94 0.00225727
9 *512:34 0.00144793
10 *512:32 0.00110966
11 *512:26 0.000870656
12 *512:16 0.00297591
13 *9244:A1 *514:21 0.000400465
14 *9258:A1 *9259:A2 0.00199589
15 *9258:A1 *513:20 0.000570592
16 *9375:I1 *9132:B 8.23267e-05
17 *9375:I1 *9139:A1 0.000449698
18 *9375:I1 *9547:I 0.000341551
19 *9375:I1 *614:10 0.000257002
20 *9375:I1 *614:23 0.000380013
21 *9375:I1 *687:8 0.0002623
22 *512:16 *9378:I0 0.00125763
23 *512:34 *9259:A2 0.000961909
24 *512:34 *514:21 0.000575497
25 *512:34 *516:18 0.000103368
26 *512:94 *9269:A1 0.000122089
27 *512:94 *9269:A2 0.000245724
28 *512:94 *603:25 0.000309426
29 *512:94 *686:10 0.000470674
30 tl_o[14] *9258:A1 0.000175915
31 *9138:A1 *512:94 3.86315e-05
32 *9235:A2 *512:94 4.41356e-05
33 *9239:A2 *512:26 0.000235057
34 *9263:A1 *512:26 0.000582338
35 *9263:A1 *512:94 0.000188241
36 *9263:A2 *512:16 0.000912718
37 *9265:A1 *512:94 1.91879e-05
38 *9267:A3 *9375:I1 2.81522e-06
39 *9282:A2 *512:26 7.06537e-05
40 *9312:A4 *512:94 6.38863e-05
41 *9388:B *512:94 0.000455434
42 *9393:S *512:94 0.000154561
43 *9451:RN *9375:I1 0.000510594
44 *9472:I *512:26 0.000469862
45 *9473:I *512:26 0.000210759
46 *9478:I *512:16 0.000672285
47 *9480:I *9258:A1 0.000131739
48 *9499:I *512:16 4.99626e-05
49 *9525:I *9258:A1 0.00103795
50 *9525:I *512:34 0.000337818
51 *9526:I *512:16 0.00344026
52 *9529:I *9258:A1 2.34005e-05
53 *9540:I *512:16 0.000657966
54 *9576:I *512:16 0.000104974
55 *9581:I *512:16 0.000104974
56 *9640:I *512:16 5.89625e-05
57 *9657:I *512:32 0.000137314
58 *9666:I *512:26 0.000154827
59 *3:36 *9258:A1 0.000301671
60 *128:26 *9258:A1 0.000361216
61 *248:8 *512:26 0.000225767
62 *249:16 *9375:I1 0.000127467
63 *256:12 *9375:I1 0.00197462
64 *258:18 *512:94 0.000179518
65 *281:16 *9281:A2 3.10787e-05
66 *281:16 *9375:I1 0.000155535
67 *281:16 *512:94 0.000287643
68 *299:16 *9375:I1 0
69 *300:24 *512:26 0.000322239
70 *375:69 *9375:I1 5.07461e-05
71 *375:74 *512:32 0.000636182
72 *393:14 *9258:A1 4.58681e-05
73 *399:18 *512:94 8.60322e-06
74 *412:10 *9258:A1 0.0011949
75 *412:31 *9258:A1 0.000354209
76 *412:43 *512:16 3.02612e-05
77 *412:64 *512:16 5.06313e-05
78 *438:29 *512:32 0.00166819
79 *438:125 *512:26 0.00084293
80 *438:125 *512:94 0.000297761
81 *449:32 *512:26 0.000382529
82 *449:116 *512:26 0.000247638
83 *449:129 *512:26 0.00251075
84 *460:150 *512:94 0.000819572
85 *460:160 *9375:I1 0.000606818
86 *460:160 *512:94 0.000113027
87 *484:22 *512:16 0.00288265
88 *511:31 *9244:A1 0.000389728
89 *511:31 *512:34 4.01571e-05
*RES
1 *9526:Z *512:16 37.24 
2 *512:16 *512:26 16.148 
3 *512:26 *512:32 13.68 
4 *512:32 *512:34 5.72 
5 *512:34 *9258:A1 36.02 
6 *512:34 *9256:A2 4.5 
7 *512:32 *9244:A1 8.036 
8 *512:26 *9239:A1 4.5 
9 *512:16 *512:94 25.876 
10 *512:94 *9281:A2 4.708 
11 *512:94 *9375:I1 28.788 
*END

*D_NET *513 0.0293963
*CONN
*I *9376:I1 I *D gf180mcu_fd_sc_mcu7t5v0__mux2_2
*I *9260:A1 I *D gf180mcu_fd_sc_mcu7t5v0__oai21_1
*I *9291:A2 I *D gf180mcu_fd_sc_mcu7t5v0__nand2_2
*I *9242:A2 I *D gf180mcu_fd_sc_mcu7t5v0__nor2_1
*I *9241:A2 I *D gf180mcu_fd_sc_mcu7t5v0__aoi22_1
*I *9527:Z O *D gf180mcu_fd_sc_mcu7t5v0__dlyd_1
*CAP
1 *9376:I1 0.000211171
2 *9260:A1 3.37047e-05
3 *9291:A2 0.00148306
4 *9242:A2 0
5 *9241:A2 0
6 *9527:Z 0.00220536
7 *513:49 0.00201214
8 *513:37 0.00103617
9 *513:24 0.000520156
10 *513:20 0.0024633
11 *9260:A1 *9612:I 0.000106926
12 *9291:A2 *514:48 0.000159376
13 *9376:I1 *9376:I0 0
14 *513:20 *9257:A1 4.50092e-05
15 *513:24 *9241:A1 0.000103788
16 *513:37 *9243:A1 0.000266534
17 *513:37 *9260:B 0.000134881
18 *513:37 *9612:I 7.56248e-06
19 *513:49 *9260:B 0.000113773
20 *513:49 *9311:A2 0.000166332
21 tl_o[8] *9291:A2 0.000406902
22 tl_o[8] *513:49 0.000265501
23 *9234:B *513:20 0.000155851
24 *9241:B1 *513:24 6.8199e-07
25 *9244:B *513:37 0.000269881
26 *9244:B *513:49 2.46957e-05
27 *9245:A1 *513:20 0.000312035
28 *9245:A1 *513:24 2.14631e-05
29 *9245:A2 *513:24 4.40186e-05
30 *9245:B *513:24 2.2658e-05
31 *9257:A2 *513:20 0.000111369
32 *9257:B1 *513:24 3.18325e-05
33 *9257:B1 *513:37 2.14739e-05
34 *9258:A1 *513:20 0.000570592
35 *9260:A2 *9260:A1 2.64063e-05
36 *9260:A2 *513:24 0.000459506
37 *9261:A1 *513:20 0.000764319
38 *9261:A4 *513:20 0.00342276
39 *9261:A4 *513:49 0.000105749
40 *9376:S *9376:I1 7.73997e-05
41 *9434:D *513:20 0.00241985
42 *9470:I *513:20 0.000482936
43 *9480:I *513:20 0.000105623
44 *9538:I *513:20 0
45 *3:50 *9291:A2 0.000128794
46 *3:50 *9376:I1 0
47 *3:50 *513:20 0.000740089
48 *3:50 *513:49 0.000100568
49 *191:8 *9376:I1 7.17602e-05
50 *296:14 *513:37 1.80644e-05
51 *304:18 *513:37 6.54234e-06
52 *332:14 *513:37 2.35091e-05
53 *332:14 *513:49 1.42672e-05
54 *378:176 *9291:A2 0.00548251
55 *393:14 *513:20 0.000739969
56 *407:20 *513:49 1.76687e-05
57 *408:14 *513:20 0.000810489
58 *416:14 *513:20 4.93451e-05
*RES
1 *9527:Z *513:20 47.224 
2 *513:20 *513:24 6.684 
3 *513:24 *9241:A2 4.5 
4 *513:24 *513:37 7.1 
5 *513:37 *513:49 18.804 
6 *513:49 *9242:A2 4.5 
7 *513:49 *9291:A2 40.18 
8 *513:37 *9260:A1 9.312 
9 *9291:A2 *9376:I1 10.872 
*END

*D_NET *514 0.0382009
*CONN
*I *9301:A2 I *D gf180mcu_fd_sc_mcu7t5v0__nand2_2
*I *9377:I1 I *D gf180mcu_fd_sc_mcu7t5v0__mux2_2
*I *9242:A1 I *D gf180mcu_fd_sc_mcu7t5v0__nor2_1
*I *9241:A1 I *D gf180mcu_fd_sc_mcu7t5v0__aoi22_1
*I *9256:A1 I *D gf180mcu_fd_sc_mcu7t5v0__nor2_1
*I *9528:Z O *D gf180mcu_fd_sc_mcu7t5v0__dlyd_1
*CAP
1 *9301:A2 0.000584199
2 *9377:I1 0
3 *9242:A1 0
4 *9241:A1 0.000237369
5 *9256:A1 0
6 *9528:Z 0.002854
7 *514:69 0.002521
8 *514:48 0.00252961
9 *514:21 0.00183144
10 *514:14 0.00385526
11 *9241:A1 *9243:A1 3.20029e-05
12 *9241:A1 *9612:I 1.91996e-05
13 *9241:A1 *517:20 5.71584e-05
14 *9301:A2 *9377:I0 2.24654e-05
15 *9301:A2 *648:89 0.000157777
16 *514:14 *9215:A1 0.000176997
17 *514:14 *9387:A1 0.00400555
18 *514:48 *517:20 0.0005651
19 *514:69 *9313:A2 0.000115166
20 tl_o[8] *514:14 0.000227364
21 tl_o[8] *514:21 0.00116614
22 tl_o[8] *514:48 0.000669876
23 *9130:I *514:14 8.31839e-05
24 *9241:B1 *9241:A1 0.000188231
25 *9241:B2 *9241:A1 0.000785898
26 *9244:A1 *514:21 0.000400465
27 *9244:B *514:21 0.000317921
28 *9244:B *514:48 0.000251411
29 *9245:A2 *9241:A1 3.4596e-05
30 *9248:A3 *514:14 0.00111375
31 *9255:A2 *514:14 6.99477e-05
32 *9257:B1 *9241:A1 0.000332849
33 *9260:A2 *9241:A1 2.80315e-05
34 *9291:A1 *514:69 0.00037827
35 *9291:A2 *514:48 0.000159376
36 *9301:A1 *9301:A2 0.000136
37 *9374:I1 *514:21 5.85695e-05
38 *9374:I1 *514:48 0.000681999
39 *9374:I1 *514:69 0.000832265
40 *9374:S *514:69 0.00325444
41 *9376:S *514:69 8.80888e-05
42 *9377:S *9301:A2 8.23267e-05
43 *9384:I0 *514:14 0.000208711
44 *9396:D *514:69 7.31277e-05
45 *9432:D *514:14 7.30742e-05
46 *9474:I *514:14 2.6481e-05
47 *9525:I *514:14 0.00063651
48 *9525:I *514:21 0.000367484
49 *9532:I *514:14 0.000106876
50 *9536:I *514:14 0.000768985
51 *9540:I *514:14 0.000132872
52 *9581:I *514:14 2.64063e-05
53 *3:46 *514:14 0.000153837
54 *3:50 *514:48 1.73106e-05
55 *3:50 *514:69 0
56 *4:25 *514:14 0.000688763
57 *327:17 *9301:A2 0
58 *327:17 *514:69 0
59 *332:14 *514:48 0.000271774
60 *332:14 *514:69 0.000464049
61 *367:29 *9241:A1 5.01417e-05
62 *378:176 *514:48 0.000961959
63 *401:20 *514:69 3.4596e-05
64 *402:18 *514:48 0.000262946
65 *420:14 *514:14 0.000173452
66 *421:41 *514:14 0.000141094
67 *438:72 *514:69 1.72201e-05
68 *460:160 *9301:A2 0.00026679
69 *460:164 *9301:A2 0.000372594
70 *460:164 *514:69 0.000306641
71 *511:31 *514:21 1.25888e-05
72 *512:34 *514:21 0.000575497
73 *513:24 *9241:A1 0.000103788
*RES
1 *9528:Z *514:14 41.06 
2 *514:14 *9256:A1 4.5 
3 *514:14 *514:21 10.504 
4 *514:21 *9241:A1 16.828 
5 *514:21 *514:48 22.236 
6 *514:48 *9242:A1 9 
7 *514:48 *514:69 31.152 
8 *514:69 *9377:I1 9 
9 *514:69 *9301:A2 15.032 
*END

*D_NET *515 0.0189763
*CONN
*I *9260:B I *D gf180mcu_fd_sc_mcu7t5v0__oai21_1
*I *9257:A1 I *D gf180mcu_fd_sc_mcu7t5v0__oai32_1
*I *9259:A2 I *D gf180mcu_fd_sc_mcu7t5v0__oai22_1
*I *9529:Z O *D gf180mcu_fd_sc_mcu7t5v0__dlyd_1
*CAP
1 *9260:B 0.000828481
2 *9257:A1 0.00017842
3 *9259:A2 0.000572166
4 *9529:Z 0.00012385
5 *515:25 0.00117054
6 *515:8 0.000859658
7 *9259:A2 *516:18 0.000142775
8 *9259:A2 *516:48 0.00285452
9 *9260:B *9612:I 0.000272729
10 *515:8 *530:22 8.76154e-05
11 *515:25 *530:22 0.000194305
12 *9244:B *9260:B 0.000285685
13 *9245:A3 *9260:B 0.000103788
14 *9257:B1 *9257:A1 5.05912e-05
15 *9257:B1 *9260:B 0.00136137
16 *9258:A1 *9259:A2 0.00199589
17 *9260:A2 *9260:B 0.00046572
18 *9261:A1 *9257:A1 0.000304187
19 *9345:I0 *515:8 0.00089398
20 *9525:I *9257:A1 0.000674193
21 *9525:I *9259:A2 0.000392823
22 *9525:I *9260:B 0.00111945
23 *3:50 *9257:A1 8.01325e-05
24 *3:50 *9260:B 0.000606748
25 *412:10 *9259:A2 3.42651e-05
26 *460:81 *515:8 0.0012448
27 *460:81 *515:25 0.000822081
28 *512:34 *9259:A2 0.000961909
29 *513:20 *9257:A1 4.50092e-05
30 *513:37 *9260:B 0.000134881
31 *513:49 *9260:B 0.000113773
*RES
1 *9529:Z *515:8 12.432 
2 *515:8 *9259:A2 20.96 
3 *515:8 *515:25 6.892 
4 *515:25 *9257:A1 6.892 
5 *515:25 *9260:B 23.588 
*END

*D_NET *516 0.0316361
*CONN
*I *9240:A1 I *D gf180mcu_fd_sc_mcu7t5v0__nand2_1
*I *9129:I I *D gf180mcu_fd_sc_mcu7t5v0__clkinv_1
*I *9257:B2 I *D gf180mcu_fd_sc_mcu7t5v0__oai32_1
*I *9259:A1 I *D gf180mcu_fd_sc_mcu7t5v0__oai22_1
*I *9258:A2 I *D gf180mcu_fd_sc_mcu7t5v0__aoi22_1
*I *9243:A1 I *D gf180mcu_fd_sc_mcu7t5v0__nand2_1
*I *9244:A3 I *D gf180mcu_fd_sc_mcu7t5v0__oai31_1
*I *9530:Z O *D gf180mcu_fd_sc_mcu7t5v0__dlyd_1
*CAP
1 *9240:A1 0.000202486
2 *9129:I 0.000144857
3 *9257:B2 0.000270738
4 *9259:A1 0
5 *9258:A2 0.000249335
6 *9243:A1 0.000438811
7 *9244:A3 0
8 *9530:Z 0.000778518
9 *516:79 0.000602293
10 *516:48 0.000860746
11 *516:40 0.000914861
12 *516:18 0.00133175
13 *516:14 0.00137614
14 *516:10 0.00148395
15 *9240:A1 *517:20 0.000446389
16 *516:10 *9232:A2 8.14409e-05
17 *516:10 *517:20 0.000464951
18 *516:14 *9232:A2 4.78192e-05
19 *516:14 *9592:I 0
20 *516:79 *9232:A2 0.000151923
21 *516:79 *517:20 0.000938683
22 *516:79 *530:22 4.67771e-06
23 tl_o[22] *516:10 3.97735e-05
24 tl_o[51] *516:10 0.000485176
25 *9238:A2 *9240:A1 4.18042e-05
26 *9241:A1 *9243:A1 3.20029e-05
27 *9241:B1 *9243:A1 0.000424112
28 *9241:B2 *9240:A1 0.000103788
29 *9241:B2 *9243:A1 0.00126354
30 *9244:B *9243:A1 0.00113845
31 *9257:A3 *9257:B2 0.000268824
32 *9257:B1 *9243:A1 0.00033778
33 *9257:B1 *9257:B2 5.13977e-05
34 *9258:B2 *9258:A2 0.000264936
35 *9259:A2 *516:18 0.000142775
36 *9259:A2 *516:48 0.00285452
37 *9259:B2 *516:18 0.00141821
38 *9259:B2 *516:48 0.000559719
39 *9261:A2 *9258:A2 0.000412802
40 *9261:A3 *9258:A2 0.000602913
41 *9374:I1 *9243:A1 0.000160555
42 *9374:I1 *516:18 4.5412e-05
43 *9440:D *9129:I 0.000352773
44 *9525:I *9257:B2 0.000775218
45 *9529:I *9257:B2 0.000122244
46 *9535:I *9258:A2 1.39778e-05
47 *9535:I *516:10 6.98206e-05
48 *9537:I *9258:A2 1.73875e-05
49 *9538:I *516:48 0.000734689
50 *295:12 *516:10 2.38485e-05
51 *295:20 *9257:B2 0.000219608
52 *295:20 *516:14 0.000595984
53 *295:20 *516:40 4.04633e-05
54 *300:24 *9240:A1 0.000489998
55 *332:14 *9243:A1 3.27257e-05
56 *378:159 *9129:I 0.00171683
57 *378:159 *9240:A1 0.000173376
58 *378:159 *516:79 3.22108e-05
59 *401:20 *516:10 0
60 *405:25 *9257:B2 9.76261e-05
61 *405:31 *9257:B2 7.4087e-05
62 *405:31 *516:14 0.00144937
63 *405:31 *516:40 7.3514e-05
64 *405:38 *9240:A1 1.71326e-05
65 *408:25 *9243:A1 9.05769e-05
66 *408:25 *516:18 0.00025982
67 *416:14 *516:48 1.56624e-05
68 *422:10 *516:14 0.00109363
69 *449:32 *9129:I 0.000363537
70 *449:32 *9240:A1 9.9745e-05
71 *511:31 *516:18 0.000472075
72 *511:55 *516:18 0.000309426
73 *512:34 *516:18 0.000103368
74 *513:37 *9243:A1 0.000266534
*RES
1 *9530:Z *516:10 11.052 
2 *516:10 *516:14 13.964 
3 *516:14 *516:18 13.34 
4 *516:18 *9244:A3 4.5 
5 *516:18 *9243:A1 20.676 
6 *516:14 *516:40 0.52 
7 *516:40 *516:48 14.172 
8 *516:48 *9258:A2 16.724 
9 *516:48 *9259:A1 4.5 
10 *516:40 *9257:B2 13.056 
11 *516:10 *516:79 2.808 
12 *516:79 *9129:I 17.972 
13 *516:79 *9240:A1 16.516 
*END

*D_NET *517 0.0175145
*CONN
*I *9233:A1 I *D gf180mcu_fd_sc_mcu7t5v0__and2_1
*I *9531:Z O *D gf180mcu_fd_sc_mcu7t5v0__dlyd_1
*CAP
1 *9233:A1 0.000115058
2 *9531:Z 0.00189467
3 *517:20 0.00200973
4 *517:20 *9230:A2 0.00142583
5 *517:20 *9342:A1 0.000120448
6 *517:20 *9381:I0 8.84807e-05
7 tl_o[22] *517:20 6.84196e-06
8 tl_o[8] *9233:A1 0.000465544
9 tl_o[8] *517:20 0.000415075
10 *9240:A1 *517:20 0.000446389
11 *9241:A1 *517:20 5.71584e-05
12 *9241:B2 *517:20 0.000627321
13 *9261:A4 *517:20 0.000690597
14 *9663:I *517:20 0.000396632
15 *3:50 *9233:A1 0.000144577
16 *3:50 *517:20 0.000518458
17 *367:29 *517:20 0.00456921
18 *378:159 *517:20 0.000266731
19 *378:176 *517:20 1.41436e-05
20 *401:20 *517:20 0.000222437
21 *426:12 *517:20 0.0010504
22 *514:48 *517:20 0.0005651
23 *516:10 *517:20 0.000464951
24 *516:79 *517:20 0.000938683
*RES
1 *9531:Z *517:20 45.56 
2 *517:20 *9233:A1 10.352 
*END

*D_NET *518 0.0034041
*CONN
*I *9223:A1 I *D gf180mcu_fd_sc_mcu7t5v0__and2_2
*I *9532:Z O *D gf180mcu_fd_sc_mcu7t5v0__dlyd_1
*CAP
1 *9223:A1 0.000495802
2 *9532:Z 0.000495802
3 *9223:A1 *9224:A2 0.000465606
4 tl_o[54] *9223:A1 0.000465606
5 *9223:A2 *9223:A1 7.12358e-05
6 *9468:I *9223:A1 5.34291e-06
7 *9479:I *9223:A1 0.000605863
8 *9481:I *9223:A1 8.35838e-05
9 *9639:I *9223:A1 0.000102664
10 *295:20 *9223:A1 0.00039988
11 *404:14 *9223:A1 0.000152019
12 *460:129 *9223:A1 6.06951e-05
*RES
1 *9532:Z *9223:A1 24.552 
*END

*D_NET *519 0.00347828
*CONN
*I *9224:A2 I *D gf180mcu_fd_sc_mcu7t5v0__and2_2
*I *9533:Z O *D gf180mcu_fd_sc_mcu7t5v0__dlyd_1
*CAP
1 *9224:A2 0.000797959
2 *9533:Z 0.000797959
3 *9224:A2 *9387:A1 4.26427e-05
4 tl_o[52] *9224:A2 0.000781194
5 tl_o[54] *9224:A2 0.00039566
6 *9223:A1 *9224:A2 0.000465606
7 *9262:B *9224:A2 0.000172995
8 *9388:B *9224:A2 2.42612e-05
*RES
1 *9533:Z *9224:A2 16.696 
*END

*D_NET *520 0.00785758
*CONN
*I *9225:A2 I *D gf180mcu_fd_sc_mcu7t5v0__and2_2
*I *9534:Z O *D gf180mcu_fd_sc_mcu7t5v0__dlyd_1
*CAP
1 *9225:A2 0.000788827
2 *9534:Z 0.000788827
3 *9225:A2 *9229:A2 0.00177341
4 *9225:A2 *9594:I 0.00158652
5 *9225:A1 *9225:A2 0.000609607
6 *9238:A1 *9225:A2 0.000440975
7 *9583:I *9225:A2 0.0011484
8 *300:24 *9225:A2 2.18918e-05
9 *460:14 *9225:A2 0.000699131
*RES
1 *9534:Z *9225:A2 21.584 
*END

*D_NET *521 0.00578766
*CONN
*I *9226:A2 I *D gf180mcu_fd_sc_mcu7t5v0__and2_2
*I *9535:Z O *D gf180mcu_fd_sc_mcu7t5v0__dlyd_1
*CAP
1 *9226:A2 0.00112492
2 *9535:Z 0.00112492
3 tl_o[0] *9226:A2 0.00187063
4 tl_o[5] *9226:A2 0.000262258
5 *9226:A1 *9226:A2 0.000157768
6 *9395:B *9226:A2 0.000352569
7 *9474:I *9226:A2 5.74667e-05
8 *9539:I *9226:A2 0.000565782
9 *9542:I *9226:A2 0.000184052
10 *408:51 *9226:A2 2.39382e-05
11 *416:14 *9226:A2 2.8821e-05
12 *511:8 *9226:A2 3.45498e-05
*RES
1 *9535:Z *9226:A2 20.648 
*END

*D_NET *522 0.00302927
*CONN
*I *9227:A2 I *D gf180mcu_fd_sc_mcu7t5v0__and2_2
*I *9536:Z O *D gf180mcu_fd_sc_mcu7t5v0__dlyd_1
*CAP
1 *9227:A2 0.000280314
2 *9536:Z 0.000280314
3 *9227:A2 *594:26 6.6879e-06
4 tl_o[4] *9227:A2 3.18527e-05
5 *9227:A1 *9227:A2 0.000277994
6 *9249:A2 *9227:A2 0.000335815
7 *9472:I *9227:A2 0
8 *9545:I *9227:A2 0.0018163
*RES
1 *9536:Z *9227:A2 23.2 
*END

*D_NET *523 0.00275357
*CONN
*I *9228:A2 I *D gf180mcu_fd_sc_mcu7t5v0__and2_2
*I *9537:Z O *D gf180mcu_fd_sc_mcu7t5v0__dlyd_1
*CAP
1 *9228:A2 0.000451852
2 *9537:Z 0.000451852
3 *9228:A2 *530:22 0.00044938
4 *9245:A1 *9228:A2 1.46269e-05
5 *9260:A2 *9228:A2 0.00124705
6 *9472:I *9228:A2 3.29691e-05
7 *449:32 *9228:A2 9.6326e-05
8 *460:110 *9228:A2 9.51345e-06
*RES
1 *9537:Z *9228:A2 22.784 
*END

*D_NET *524 0.00715144
*CONN
*I *9229:A2 I *D gf180mcu_fd_sc_mcu7t5v0__and2_2
*I *9538:Z O *D gf180mcu_fd_sc_mcu7t5v0__dlyd_1
*CAP
1 *9229:A2 0.000914743
2 *9538:Z 0.000914743
3 *9229:A2 *9381:I0 8.74605e-05
4 *9229:A2 *9381:I1 0.000557649
5 *9229:A2 *9594:I 9.83724e-05
6 *9225:A2 *9229:A2 0.00177341
7 *9440:CLK *9229:A2 0.000149923
8 *378:108 *9229:A2 0.0021063
9 *378:110 *9229:A2 0.000310798
10 *449:16 *9229:A2 0
11 *449:32 *9229:A2 0.000209505
12 *460:14 *9229:A2 2.85433e-05
*RES
1 *9538:Z *9229:A2 21.376 
*END

*D_NET *525 0.00720366
*CONN
*I *9230:A2 I *D gf180mcu_fd_sc_mcu7t5v0__and2_2
*I *9539:Z O *D gf180mcu_fd_sc_mcu7t5v0__dlyd_1
*CAP
1 *9230:A2 0.00139169
2 *9539:Z 0.00139169
3 *9230:A2 *9232:A2 0.0014174
4 *9230:A2 *9381:I0 0.000168124
5 *9230:A2 *594:26 3.12171e-05
6 tl_o[22] *9230:A2 4.30877e-05
7 *9230:A1 *9230:A2 0.000197059
8 *9395:B *9230:A2 0.000174811
9 *9:23 *9230:A2 0.000498816
10 *372:18 *9230:A2 9.9336e-05
11 *405:31 *9230:A2 0.000108337
12 *460:8 *9230:A2 0.000256274
13 *517:20 *9230:A2 0.00142583
*RES
1 *9539:Z *9230:A2 33.704 
*END

*D_NET *526 0.00535218
*CONN
*I *9378:I0 I *D gf180mcu_fd_sc_mcu7t5v0__mux2_2
*I *9540:Z O *D gf180mcu_fd_sc_mcu7t5v0__dlyd_1
*CAP
1 *9378:I0 0.000691537
2 *9540:Z 0.000691537
3 *9378:I0 *9378:I1 4.55843e-06
4 tl_o[26] *9378:I0 0.00013136
5 tl_o[54] *9378:I0 0.00033655
6 *9536:I *9378:I0 0.000132389
7 *9540:I *9378:I0 0.00187349
8 *9640:I *9378:I0 0.000233127
9 *512:16 *9378:I0 0.00125763
*RES
1 *9540:Z *9378:I0 27.36 
*END

*D_NET *527 0.00565209
*CONN
*I *9379:I0 I *D gf180mcu_fd_sc_mcu7t5v0__mux2_2
*I *9541:Z O *D gf180mcu_fd_sc_mcu7t5v0__dlyd_1
*CAP
1 *9379:I0 0.00131493
2 *9541:Z 0.00131493
3 *9379:I0 *9378:I1 0.000634069
4 *9379:I0 *9379:I1 1.05754e-05
5 tl_o[26] *9379:I0 0.000134582
6 tl_o[54] *9379:I0 0.000164994
7 *9258:B2 *9379:I0 5.35322e-06
8 *9262:B *9379:I0 0.000408518
9 *9378:S *9379:I0 0.000406156
10 *9379:S *9379:I0 0.0010234
11 *9532:I *9379:I0 4.07424e-05
12 *9536:I *9379:I0 0.000193849
*RES
1 *9541:Z *9379:I0 30.064 
*END

*D_NET *528 0.0112862
*CONN
*I *9381:I0 I *D gf180mcu_fd_sc_mcu7t5v0__mux2_2
*I *9542:Z O *D gf180mcu_fd_sc_mcu7t5v0__dlyd_1
*CAP
1 *9381:I0 0.00194524
2 *9542:Z 0.00194524
3 *9381:I0 *9381:I1 3.45047e-05
4 *9381:I0 *9594:I 0.000652714
5 *9381:I0 *594:26 0.000279926
6 *9229:A2 *9381:I0 8.74605e-05
7 *9230:A2 *9381:I0 0.000168124
8 *9241:B2 *9381:I0 0.000545356
9 *9381:S *9381:I0 0.000385441
10 *9386:S *9381:I0 0.000973641
11 *9394:A2 *9381:I0 0.000556029
12 *9527:I *9381:I0 0.00108073
13 *9583:I *9381:I0 0.00035701
14 *9:23 *9381:I0 0.00134054
15 *405:31 *9381:I0 3.07277e-05
16 *405:38 *9381:I0 4.5488e-05
17 *422:48 *9381:I0 0
18 *460:8 *9381:I0 0.000247057
19 *460:14 *9381:I0 0.000522435
20 *517:20 *9381:I0 8.84807e-05
*RES
1 *9542:Z *9381:I0 39.632 
*END

*D_NET *529 0.000755065
*CONN
*I *9380:I0 I *D gf180mcu_fd_sc_mcu7t5v0__mux2_2
*I *9543:Z O *D gf180mcu_fd_sc_mcu7t5v0__dlyd_1
*CAP
1 *9380:I0 4.44484e-05
2 *9543:Z 4.44484e-05
3 tl_o[5] *9380:I0 0.000462805
4 *9539:I *9380:I0 0.000203364
*RES
1 *9543:Z *9380:I0 10.352 
*END

*D_NET *530 0.0184554
*CONN
*I *9586:I I *D gf180mcu_fd_sc_mcu7t5v0__dlyd_1
*I *9232:A2 I *D gf180mcu_fd_sc_mcu7t5v0__nand2_1
*I *9231:ZN O *D gf180mcu_fd_sc_mcu7t5v0__nor2_1
*CAP
1 *9586:I 0
2 *9232:A2 0.00163626
3 *9231:ZN 0.00178956
4 *530:22 0.00342582
5 *9232:A2 *9592:I 0.000877612
6 *9228:A2 *530:22 0.00044938
7 *9230:A1 *9232:A2 0.00082118
8 *9230:A2 *9232:A2 0.0014174
9 *9232:A1 *9232:A2 0.000265501
10 *9236:A2 *530:22 0.00011485
11 *9239:A2 *530:22 0.000376528
12 *9241:B1 *530:22 0.00118871
13 *9245:A1 *530:22 0.000174088
14 *9260:A2 *530:22 8.16884e-06
15 *9280:A1 *9232:A2 0.00012524
16 *9341:I0 *9232:A2 5.47431e-06
17 *9345:I0 *530:22 0.00131683
18 *9395:A2 *530:22 0.000325631
19 *9:23 *9232:A2 0.000498816
20 *248:8 *530:22 9.60015e-05
21 *295:12 *9232:A2 0.000113027
22 *371:18 *530:22 0.000110729
23 *378:159 *530:22 0.000113027
24 *380:57 *530:22 0.00083939
25 *401:20 *9232:A2 0.000369445
26 *401:20 *530:22 6.64873e-05
27 *405:31 *9232:A2 4.56444e-06
28 *449:32 *530:22 0.00125631
29 *460:81 *530:22 2.50554e-05
30 *460:106 *530:22 7.64811e-05
31 *515:8 *530:22 8.76154e-05
32 *515:25 *530:22 0.000194305
33 *516:10 *9232:A2 8.14409e-05
34 *516:14 *9232:A2 4.78192e-05
35 *516:79 *9232:A2 0.000151923
36 *516:79 *530:22 4.67771e-06
*RES
1 *9231:ZN *530:22 44.652 
2 *530:22 *9232:A2 31.7 
3 *530:22 *9586:I 4.5 
*END

*D_NET *531 0.00139678
*CONN
*I *9587:I I *D gf180mcu_fd_sc_mcu7t5v0__dlyd_1
*I *9317:Z O *D gf180mcu_fd_sc_mcu7t5v0__mux2_2
*CAP
1 *9587:I 0.00039972
2 *9317:Z 0.00039972
3 *9317:I0 *9587:I 0
4 *9317:I1 *9587:I 0.000349843
5 *444:37 *9587:I 0.000247495
*RES
1 *9317:Z *9587:I 23.408 
*END

*D_NET *532 0.0047863
*CONN
*I *9588:I I *D gf180mcu_fd_sc_mcu7t5v0__dlyd_1
*I *9321:Z O *D gf180mcu_fd_sc_mcu7t5v0__mux2_2
*CAP
1 *9588:I 0.00178359
2 *9321:Z 0.00178359
3 *9321:S *9588:I 4.41041e-05
4 *411:14 *9588:I 0.000442894
5 *411:16 *9588:I 0.000732127
*RES
1 *9321:Z *9588:I 35.056 
*END

*D_NET *533 0.00125885
*CONN
*I *9589:I I *D gf180mcu_fd_sc_mcu7t5v0__dlyd_1
*I *9325:Z O *D gf180mcu_fd_sc_mcu7t5v0__mux2_2
*CAP
1 *9589:I 0.00052876
2 *9325:Z 0.00052876
3 *9321:I1 *9589:I 0
4 *9325:S *9589:I 0
5 *411:50 *9589:I 0
6 *444:37 *9589:I 0.000201335
*RES
1 *9325:Z *9589:I 22.16 
*END

*D_NET *534 0.00186966
*CONN
*I *9590:I I *D gf180mcu_fd_sc_mcu7t5v0__dlyd_1
*I *9329:Z O *D gf180mcu_fd_sc_mcu7t5v0__mux2_2
*CAP
1 *9590:I 0.000519531
2 *9329:Z 0.000519531
3 tl_o[16] *9590:I 5.60123e-05
4 *411:16 *9590:I 0.000387295
5 *444:33 *9590:I 0.000387295
*RES
1 *9329:Z *9590:I 23.824 
*END

*D_NET *535 0.00650714
*CONN
*I *9591:I I *D gf180mcu_fd_sc_mcu7t5v0__dlyd_1
*I *9269:Z O *D gf180mcu_fd_sc_mcu7t5v0__and2_1
*CAP
1 *9591:I 0.000839333
2 *9269:Z 0.000839333
3 *9591:I *543:16 0.0024053
4 tl_o[27] *9591:I 8.8202e-05
5 *9388:B *9591:I 0.000775319
6 *9478:I *9591:I 0.00108082
7 *295:20 *9591:I 7.92786e-05
8 *460:150 *9591:I 0.000316636
9 *484:22 *9591:I 8.29199e-05
*RES
1 *9269:Z *9591:I 29.232 
*END

*D_NET *536 0.00843216
*CONN
*I *9592:I I *D gf180mcu_fd_sc_mcu7t5v0__dlyd_1
*I *9333:Z O *D gf180mcu_fd_sc_mcu7t5v0__mux2_2
*CAP
1 *9592:I 0.00116496
2 *9333:Z 0.00116496
3 tl_o[0] *9592:I 5.59003e-05
4 *9130:I *9592:I 0.000180228
5 *9232:A2 *9592:I 0.000877612
6 *9395:B *9592:I 6.32895e-05
7 *9474:I *9592:I 0.000547167
8 *9537:I *9592:I 0.000341493
9 *9553:I *9592:I 0.000113016
10 *295:12 *9592:I 1.0522e-05
11 *295:20 *9592:I 0.000367677
12 *420:14 *9592:I 0.000245653
13 *441:14 *9592:I 0.00211227
14 *441:34 *9592:I 0.00118741
15 *516:14 *9592:I 0
*RES
1 *9333:Z *9592:I 36.928 
*END

*D_NET *537 0.00446628
*CONN
*I *9593:I I *D gf180mcu_fd_sc_mcu7t5v0__dlyd_1
*I *9337:Z O *D gf180mcu_fd_sc_mcu7t5v0__mux2_2
*CAP
1 *9593:I 0.00114326
2 *9337:Z 0.00114326
3 *9593:I *9220:A1 3.97743e-05
4 *9593:I *9381:I1 0.000105345
5 *9381:S *9593:I 0.000172405
6 *9434:D *9593:I 0
7 *9435:D *9593:I 0.000481555
8 *9437:CLK *9593:I 0.000139532
9 *9538:I *9593:I 0.000654114
10 *378:110 *9593:I 0.000132685
11 *422:31 *9593:I 0.000454351
*RES
1 *9337:Z *9593:I 29.024 
*END

*D_NET *538 0.00739324
*CONN
*I *9594:I I *D gf180mcu_fd_sc_mcu7t5v0__dlyd_1
*I *9341:Z O *D gf180mcu_fd_sc_mcu7t5v0__mux2_2
*CAP
1 *9594:I 0.000956351
2 *9341:Z 0.000956351
3 *9594:I *9381:I1 0.000740586
4 *9225:A2 *9594:I 0.00158652
5 *9229:A2 *9594:I 9.83724e-05
6 *9341:I1 *9594:I 0.000244377
7 *9381:I0 *9594:I 0.000652714
8 *9434:D *9594:I 0.000131145
9 *9435:D *9594:I 0.000168204
10 *9497:I *9594:I 7.9929e-05
11 *9574:I *9594:I 0.000397567
12 *9583:I *9594:I 0.00113377
13 *393:14 *9594:I 0.00022148
14 *444:18 *9594:I 2.58696e-05
*RES
1 *9341:Z *9594:I 31.832 
*END

*D_NET *539 0.00685413
*CONN
*I *9382:I0 I *D gf180mcu_fd_sc_mcu7t5v0__mux2_2
*I *9544:Z O *D gf180mcu_fd_sc_mcu7t5v0__dlyd_1
*CAP
1 *9382:I0 0.00132711
2 *9544:Z 0.00132711
3 *9382:I0 *9214:A1 0.000113016
4 *9382:I0 *9633:D[0] 0.000277018
5 *9382:I0 *594:129 0.00135996
6 *9382:I0 *594:146 6.31301e-05
7 *9382:I0 *594:161 2.83242e-05
8 tl_o[56] *9382:I0 9.66623e-05
9 tl_o[65] *9382:I0 0.000400414
10 *9382:S *9382:I0 0.000113016
11 *9385:I0 *9382:I0 0.00155463
12 *308:12 *9382:I0 8.6704e-05
13 *375:94 *9382:I0 0.000107043
*RES
1 *9544:Z *9382:I0 31.52 
*END

*D_NET *540 0.000415812
*CONN
*I *9595:I I *D gf180mcu_fd_sc_mcu7t5v0__dlyd_1
*I *9345:Z O *D gf180mcu_fd_sc_mcu7t5v0__mux2_2
*CAP
1 *9595:I 7.37135e-05
2 *9345:Z 7.37135e-05
3 *9537:I *9595:I 0.000121033
4 *416:14 *9595:I 0.000112755
5 *420:14 *9595:I 3.4596e-05
*RES
1 *9345:Z *9595:I 9.936 
*END

*D_NET *541 0.0055034
*CONN
*I *9596:I I *D gf180mcu_fd_sc_mcu7t5v0__dlyd_1
*I *9349:Z O *D gf180mcu_fd_sc_mcu7t5v0__mux2_2
*CAP
1 *9596:I 0.00123745
2 *9349:Z 0.00123745
3 *9596:I *9347:A1 3.22532e-06
4 *9596:I *9597:I 0.000759391
5 *9138:A4 *9596:I 1.0671e-05
6 *9252:A2 *9596:I 0.000631716
7 *9348:A1 *9596:I 0
8 *9444:D *9596:I 0.000435183
9 *9445:D *9596:I 0
10 *9445:CLK *9596:I 9.0311e-05
11 *9473:I *9596:I 2.99808e-05
12 *9578:I *9596:I 0
13 *380:31 *9596:I 0.00075145
14 *381:63 *9596:I 9.89981e-05
15 *448:61 *9596:I 0.00021758
*RES
1 *9349:Z *9596:I 29.44 
*END

*D_NET *542 0.0139408
*CONN
*I *9597:I I *D gf180mcu_fd_sc_mcu7t5v0__dlyd_1
*I *9353:Z O *D gf180mcu_fd_sc_mcu7t5v0__mux2_2
*CAP
1 *9597:I 0.00202256
2 *9353:Z 0.00202256
3 *9247:A1 *9597:I 0.00122561
4 *9247:A2 *9597:I 0.000257927
5 *9248:A3 *9597:I 5.46664e-05
6 *9255:A1 *9597:I 4.64922e-06
7 *9390:I0 *9597:I 2.36855e-05
8 *9408:D *9597:I 0.000602924
9 *9436:CLK *9597:I 0.000183183
10 *9442:CLK *9597:I 2.14739e-05
11 *9520:I *9597:I 0.00149363
12 *9584:I *9597:I 0.000113027
13 *9596:I *9597:I 0.000759391
14 *4:25 *9597:I 0.000718353
15 *329:26 *9597:I 0.000543495
16 *380:12 *9597:I 0.000355296
17 *380:31 *9597:I 0.00133262
18 *472:10 *9597:I 3.35843e-06
19 *472:36 *9597:I 0.00179342
20 *474:44 *9597:I 0.000408929
*RES
1 *9353:Z *9597:I 42.544 
*END

*D_NET *543 0.0179029
*CONN
*I *9598:I I *D gf180mcu_fd_sc_mcu7t5v0__dlyd_1
*I *9357:Z O *D gf180mcu_fd_sc_mcu7t5v0__mux2_2
*CAP
1 *9598:I 0
2 *9357:Z 0.00186337
3 *543:16 0.00186337
4 *543:16 *9219:A2 5.31759e-05
5 *543:16 *9222:A1 0.000713492
6 *543:16 *608:10 0.00109231
7 *543:16 *611:12 0.000376472
8 tl_o[13] *543:16 0.0012269
9 tl_o[64] *543:16 0.000101753
10 *9439:D *543:16 0.000400495
11 *9478:I *543:16 8.695e-05
12 *9526:I *543:16 0.00158085
13 *9579:I *543:16 0.00365043
14 *9581:I *543:16 9.76261e-05
15 *9591:I *543:16 0.0024053
16 *295:20 *543:16 3.4596e-05
17 *375:94 *543:16 0.000536042
18 *393:14 *543:16 2.39656e-05
19 *484:22 *543:16 0.00179578
*RES
1 *9357:Z *543:16 47.196 
2 *543:16 *9598:I 4.5 
*END

*D_NET *544 0.0101912
*CONN
*I *9599:I I *D gf180mcu_fd_sc_mcu7t5v0__dlyd_1
*I *9361:Z O *D gf180mcu_fd_sc_mcu7t5v0__mux2_2
*CAP
1 *9599:I 0.00158501
2 *9361:Z 0.00158501
3 *9599:I *9613:I 0.000633498
4 *9599:I *610:14 0.00134667
5 tl_o[40] *9599:I 0.00240809
6 tl_o[56] *9599:I 0.000268824
7 tl_o[6] *9599:I 8.89433e-05
8 *9248:A2 *9599:I 0
9 *9357:I0 *9599:I 0.000877711
10 *9361:S *9599:I 0.000100181
11 *9438:D *9599:I 6.35093e-06
12 *9499:I *9599:I 0
13 *9520:I *9599:I 1.57138e-05
14 *9528:I *9599:I 0.00103383
15 *375:94 *9599:I 3.51889e-05
16 *419:14 *9599:I 0.00020618
*RES
1 *9361:Z *9599:I 39.84 
*END

*D_NET *545 0.00135193
*CONN
*I *9600:I I *D gf180mcu_fd_sc_mcu7t5v0__dlyd_1
*I *9365:Z O *D gf180mcu_fd_sc_mcu7t5v0__mux2_2
*CAP
1 *9600:I 0.00055154
2 *9365:Z 0.00055154
3 *9600:I *9603:I 3.93494e-05
4 *447:10 *9600:I 0.000209505
5 *447:16 *9600:I 0
*RES
1 *9365:Z *9600:I 12.536 
*END

*D_NET *546 0.00124023
*CONN
*I *9601:I I *D gf180mcu_fd_sc_mcu7t5v0__dlyd_1
*I *9369:Z O *D gf180mcu_fd_sc_mcu7t5v0__mux2_2
*CAP
1 *9601:I 0.000480477
2 *9369:Z 0.000480477
3 *9601:I *9603:I 8.69608e-05
4 *418:35 *9601:I 0
5 *447:10 *9601:I 0.00019231
*RES
1 *9369:Z *9601:I 22.888 
*END

*D_NET *547 0.00215637
*CONN
*I *9602:I I *D gf180mcu_fd_sc_mcu7t5v0__dlyd_1
*I *9373:Z O *D gf180mcu_fd_sc_mcu7t5v0__mux2_2
*CAP
1 *9602:I 0.000414532
2 *9373:Z 0.000414532
3 *419:29 *9602:I 0.00111851
4 *447:16 *9602:I 0.000208806
*RES
1 *9373:Z *9602:I 24.968 
*END

*D_NET *548 0.00497196
*CONN
*I *9603:I I *D gf180mcu_fd_sc_mcu7t5v0__dlyd_1
*I *9145:Z O *D gf180mcu_fd_sc_mcu7t5v0__mux2_2
*CAP
1 *9603:I 0.000819782
2 *9145:Z 0.000819782
3 *9369:S *9603:I 0.000919388
4 *9600:I *9603:I 3.93494e-05
5 *9601:I *9603:I 8.69608e-05
6 *419:29 *9603:I 0.00126228
7 *419:40 *9603:I 0.000441747
8 *447:10 *9603:I 0.000254522
9 *447:36 *9603:I 0.00032814
*RES
1 *9145:Z *9603:I 28.816 
*END

*D_NET *549 0.0106984
*CONN
*I *9604:I I *D gf180mcu_fd_sc_mcu7t5v0__dlyd_1
*I *9150:Z O *D gf180mcu_fd_sc_mcu7t5v0__mux2_2
*CAP
1 *9604:I 0.00100647
2 *9150:Z 0.00283472
3 *549:10 0.00384119
4 *549:10 *9606:I 0.00301606
5 *549:10 *553:12 0
6 tl_o[35] *549:10 0
*RES
1 *9150:Z *549:10 49.796 
2 *549:10 *9604:I 11.26 
*END

*D_NET *550 0.0127817
*CONN
*I *9383:I0 I *D gf180mcu_fd_sc_mcu7t5v0__mux2_2
*I *9545:Z O *D gf180mcu_fd_sc_mcu7t5v0__dlyd_1
*CAP
1 *9383:I0 0.00227189
2 *9545:Z 0.00227189
3 *9434:D *9383:I0 0.000124693
4 *9472:I *9383:I0 0.00377031
5 *422:14 *9383:I0 0.000102814
6 *422:20 *9383:I0 0.000103788
7 *422:31 *9383:I0 0.000410048
8 *422:85 *9383:I0 4.74222e-05
9 *449:32 *9383:I0 0.00367888
*RES
1 *9545:Z *9383:I0 41.088 
*END

*D_NET *551 0.00884821
*CONN
*I *9605:I I *D gf180mcu_fd_sc_mcu7t5v0__dlyd_1
*I *9154:Z O *D gf180mcu_fd_sc_mcu7t5v0__mux2_2
*CAP
1 *9605:I 0
2 *9154:Z 0.00384068
3 *551:10 0.00384068
4 *551:10 *555:8 0.00111768
5 *9150:I1 *551:10 4.67771e-06
6 *9158:S *551:10 0
7 *442:33 *551:10 4.45041e-05
*RES
1 *9154:Z *551:10 47.48 
2 *551:10 *9605:I 9 
*END

*D_NET *552 0.0116709
*CONN
*I *9606:I I *D gf180mcu_fd_sc_mcu7t5v0__dlyd_1
*I *9158:Z O *D gf180mcu_fd_sc_mcu7t5v0__mux2_2
*CAP
1 *9606:I 0.00301559
2 *9158:Z 0.000553192
3 *552:8 0.00356878
4 *9150:I1 *9606:I 0
5 *9150:I1 *552:8 0.00109919
6 *9150:S *552:8 6.53324e-05
7 *9158:S *552:8 3.30133e-05
8 *409:29 *552:8 7.27258e-05
9 *442:33 *552:8 0.000247057
10 *549:10 *9606:I 0.00301606
*RES
1 *9158:Z *552:8 14.304 
2 *552:8 *9606:I 46.96 
*END

*D_NET *553 0.00759168
*CONN
*I *9607:I I *D gf180mcu_fd_sc_mcu7t5v0__dlyd_1
*I *9162:Z O *D gf180mcu_fd_sc_mcu7t5v0__mux2_2
*CAP
1 *9607:I 0
2 *9162:Z 0.00351764
3 *553:12 0.00351764
4 *9150:I0 *553:12 5.44097e-05
5 *9150:I1 *553:12 0.000115039
6 *9150:S *553:12 0.000241108
7 *409:14 *553:12 0.00014584
8 *549:10 *553:12 0
*RES
1 *9162:Z *553:12 46.78 
2 *553:12 *9607:I 4.5 
*END

*D_NET *554 0.0155887
*CONN
*I *9608:I I *D gf180mcu_fd_sc_mcu7t5v0__dlyd_1
*I *9166:Z O *D gf180mcu_fd_sc_mcu7t5v0__mux2_2
*CAP
1 *9608:I 0
2 *9166:Z 0.00104212
3 *554:10 0.00675225
4 *554:8 0.00779437
5 *9166:S *554:8 0
*RES
1 *9166:Z *554:8 15.76 
2 *554:8 *554:10 59.8 
3 *554:10 *9608:I 9 
*END

*D_NET *555 0.0199108
*CONN
*I *9609:I I *D gf180mcu_fd_sc_mcu7t5v0__dlyd_1
*I *9170:Z O *D gf180mcu_fd_sc_mcu7t5v0__mux2_2
*CAP
1 *9609:I 0.000262017
2 *9170:Z 0
3 *555:8 0.00516359
4 *555:6 0.00490158
5 *9150:S *555:8 0
6 *9154:I0 *555:8 0.000764899
7 *379:73 *555:8 0.00307503
8 *379:77 *555:8 0.00101974
9 *409:14 *555:8 0
10 *442:23 *555:8 0.00116023
11 *442:25 *555:8 0.00215404
12 *442:27 *555:8 0.000201673
13 *442:33 *555:8 9.03002e-05
14 *551:10 *555:8 0.00111768
*RES
1 *9170:Z *555:6 9 
2 *555:6 *555:8 70.2 
3 *555:8 *9609:I 10.768 
*END

*D_NET *556 0.0354747
*CONN
*I *9610:I I *D gf180mcu_fd_sc_mcu7t5v0__dlyd_1
*I *9174:Z O *D gf180mcu_fd_sc_mcu7t5v0__mux2_2
*CAP
1 *9610:I 0
2 *9174:Z 0.000370185
3 *556:12 0.0162599
4 *556:10 0.0166301
5 *9299:A1 *556:10 0.00070994
6 *330:10 *556:10 5.469e-05
7 *330:25 *556:10 0.00144989
*RES
1 *9174:Z *556:10 19.22 
2 *556:10 *556:12 149.864 
3 *556:12 *9610:I 13.5 
*END

*D_NET *557 0.0364349
*CONN
*I *9611:I I *D gf180mcu_fd_sc_mcu7t5v0__dlyd_1
*I *9178:Z O *D gf180mcu_fd_sc_mcu7t5v0__mux2_2
*CAP
1 *9611:I 0
2 *9178:Z 0.000209837
3 *557:12 0.0176457
4 *557:10 0.0178555
5 *9643:I *557:10 0.000133832
6 *261:18 *557:10 0
7 *261:24 *557:10 0.000554953
8 *443:22 *557:10 3.51644e-05
*RES
1 *9178:Z *557:10 15.476 
2 *557:10 *557:12 152.36 
3 *557:12 *9611:I 13.5 
*END

*D_NET *558 0.0057587
*CONN
*I *9612:I I *D gf180mcu_fd_sc_mcu7t5v0__dlyd_1
*I *9452:Z O *D gf180mcu_fd_sc_mcu7t5v0__buf_1
*CAP
1 *9612:I 0.00117214
2 *9452:Z 0.00117214
3 *9612:I *9231:A2 8.99353e-05
4 *9241:A1 *9612:I 1.91996e-05
5 *9244:B *9612:I 4.71117e-06
6 *9245:A2 *9612:I 0.000133963
7 *9257:B1 *9612:I 0.00180925
8 *9260:A1 *9612:I 0.000106926
9 *9260:A2 *9612:I 0.000266558
10 *9260:B *9612:I 0.000272729
11 *9453:I *9612:I 1.07369e-05
12 *3:50 *9612:I 1.59524e-05
13 *296:14 *9612:I 0.000527282
14 *304:18 *9612:I 5.19815e-05
15 *401:20 *9612:I 9.76253e-05
16 *513:37 *9612:I 7.56248e-06
*RES
1 *9452:Z *9612:I 20.024 
*END

*D_NET *559 0.0492537
*CONN
*I *9613:I I *D gf180mcu_fd_sc_mcu7t5v0__dlyd_1
*I *9183:Z O *D gf180mcu_fd_sc_mcu7t5v0__mux2_2
*CAP
1 *9613:I 0.00406166
2 *9183:Z 0.00221585
3 *559:18 0.0077706
4 *559:14 0.00592479
5 *9613:I *610:14 0.000337359
6 tl_o[27] *9613:I 0.000121999
7 tl_o[40] *9613:I 0.000284664
8 tl_o[56] *9613:I 0.000286849
9 tl_o[6] *9613:I 0.000194983
10 *9181:A2 *559:14 0.000376958
11 *9438:D *9613:I 0.000455022
12 *9520:I *9613:I 0.00038774
13 *9528:I *9613:I 0.000415478
14 *9599:I *9613:I 0.000633498
15 *258:18 *559:18 0.000288535
16 *412:31 *559:18 0.000270227
17 *412:43 *559:18 0.0106669
18 *431:24 *559:14 0.0124625
19 *431:24 *559:18 0.00123404
20 *448:67 *559:14 0.000863978
*RES
1 *9183:Z *559:14 48.236 
2 *559:14 *559:18 45.3311 
3 *559:18 *9613:I 31.0662 
*END

*D_NET *560 0.00387654
*CONN
*I *9614:I I *D gf180mcu_fd_sc_mcu7t5v0__dlyd_1
*I *9187:Z O *D gf180mcu_fd_sc_mcu7t5v0__mux2_2
*CAP
1 *9614:I 0.000920741
2 *9187:Z 0.000920741
3 *9187:I1 *9614:I 0.000177649
4 *9408:CLK *9614:I 3.22108e-05
5 *9648:I *9614:I 5.44097e-05
6 *380:25 *9614:I 0.000101618
7 *418:35 *9614:I 0.000516665
8 *445:20 *9614:I 0.000182689
9 *448:12 *9614:I 0.000877286
10 *448:20 *9614:I 1.45789e-05
11 *448:38 *9614:I 5.42504e-05
12 *448:49 *9614:I 2.37048e-05
*RES
1 *9187:Z *9614:I 27.776 
*END

*D_NET *561 0.00735684
*CONN
*I *9314:A1 I *D gf180mcu_fd_sc_mcu7t5v0__nand3_1
*I *9632:Q[0] O *D gf180mcu_fd_ip_sram__sram256x8m8wm1
*CAP
1 *9314:A1 0.00365525
2 *9632:Q[0] 0.00365525
3 *9316:A1 *9314:A1 4.63309e-05
4 *9632:WEN[0] *9314:A1 0
*RES
1 *9632:Q[0] *9314:A1 44.752 
*END

*D_NET *562 0.00339552
*CONN
*I *9354:A1 I *D gf180mcu_fd_sc_mcu7t5v0__nand3_1
*I *9633:Q[2] O *D gf180mcu_fd_ip_sram__sram256x8m8wm1
*CAP
1 *9354:A1 0.00101383
2 *9633:Q[2] 0.00101383
3 *9354:A1 *9633:D[2] 0
4 *9354:A1 *9633:D[1] 0
5 *9186:A2 *9354:A1 0.000350975
6 *9471:I *9354:A1 2.6118e-05
7 *222:6 *9354:A1 0.000990768
*RES
1 *9633:Q[2] *9354:A1 13.08 
*END

*D_NET *563 0.00309245
*CONN
*I *9358:A1 I *D gf180mcu_fd_sc_mcu7t5v0__nand3_1
*I *9633:Q[3] O *D gf180mcu_fd_ip_sram__sram256x8m8wm1
*CAP
1 *9358:A1 0.00117648
2 *9633:Q[3] 0.00117648
3 *455:18 *9358:A1 6.69938e-05
4 *468:18 *9358:A1 0.000672495
*RES
1 *9633:Q[3] *9358:A1 23.536 
*END

*D_NET *564 0.00688423
*CONN
*I *9362:A1 I *D gf180mcu_fd_sc_mcu7t5v0__nand3_1
*I *9633:Q[4] O *D gf180mcu_fd_ip_sram__sram256x8m8wm1
*CAP
1 *9362:A1 0.00134687
2 *9633:Q[4] 0.00134687
3 *9362:A1 *9366:A1 0.000211436
4 *9372:A1 *9362:A1 1.40331e-05
5 *9633:WEN[4] *9362:A1 0
6 *258:71 *9362:A1 0.00352914
7 *258:80 *9362:A1 0.000435879
*RES
1 *9633:Q[4] *9362:A1 29.152 
*END

*D_NET *565 0.00626777
*CONN
*I *9366:A1 I *D gf180mcu_fd_sc_mcu7t5v0__nand3_1
*I *9633:Q[5] O *D gf180mcu_fd_ip_sram__sram256x8m8wm1
*CAP
1 *9366:A1 0.00158002
2 *9633:Q[5] 0.00158002
3 *9366:A1 *9370:A1 0.00123814
4 *9366:A1 *9633:D[5] 0.000810693
5 *9142:A3 *9366:A1 0.000735676
6 *9362:A1 *9366:A1 0.000211436
7 *9368:A1 *9366:A1 3.32327e-05
8 *9372:A1 *9366:A1 5.63044e-06
9 *258:80 *9366:A1 7.29199e-05
*RES
1 *9633:Q[5] *9366:A1 34.768 
*END

*D_NET *566 0.00876813
*CONN
*I *9370:A1 I *D gf180mcu_fd_sc_mcu7t5v0__nand3_1
*I *9633:Q[6] O *D gf180mcu_fd_ip_sram__sram256x8m8wm1
*CAP
1 *9370:A1 0.00213244
2 *9633:Q[6] 0.00213244
3 *9370:A1 *9633:D[6] 0.000422776
4 *9142:A2 *9370:A1 0.00146421
5 *9142:A3 *9370:A1 0.00137812
6 *9366:A1 *9370:A1 0.00123814
*RES
1 *9633:Q[6] *9370:A1 38.2 
*END

*D_NET *567 0.00863226
*CONN
*I *9142:A1 I *D gf180mcu_fd_sc_mcu7t5v0__nand3_1
*I *9633:Q[7] O *D gf180mcu_fd_ip_sram__sram256x8m8wm1
*CAP
1 *9142:A1 0.00429296
2 *9633:Q[7] 0.00429296
3 *9144:A1 *9142:A1 4.63309e-05
4 *9633:WEN[7] *9142:A1 0
*RES
1 *9633:Q[7] *9142:A1 49.12 
*END

*D_NET *568 0.00556114
*CONN
*I *9147:A1 I *D gf180mcu_fd_sc_mcu7t5v0__nand3_1
*I *9634:Q[0] O *D gf180mcu_fd_ip_sram__sram256x8m8wm1
*CAP
1 *9147:A1 0.00208811
2 *9634:Q[0] 0.00208811
3 *9147:A1 *9634:D[2] 0
4 *9147:A1 *9634:D[1] 0.000108819
5 *9634:WEN[0] *9147:A1 0
6 *330:60 *9147:A1 3.52832e-05
7 *497:12 *9147:A1 0.00124083
*RES
1 *9634:Q[0] *9147:A1 34.872 
*END

*D_NET *569 0.00368669
*CONN
*I *9151:A1 I *D gf180mcu_fd_sc_mcu7t5v0__nand3_1
*I *9634:Q[1] O *D gf180mcu_fd_ip_sram__sram256x8m8wm1
*CAP
1 *9151:A1 0.000948971
2 *9634:Q[1] 0.000948971
3 *9151:A1 *9634:D[2] 0.00135756
4 *9151:A1 *9634:D[1] 0.00018919
5 *9147:A3 *9151:A1 7.87395e-06
6 *498:12 *9151:A1 0.000234122
*RES
1 *9634:Q[1] *9151:A1 23.328 
*END

*D_NET *570 0.0021694
*CONN
*I *9155:A1 I *D gf180mcu_fd_sc_mcu7t5v0__nand3_1
*I *9634:Q[2] O *D gf180mcu_fd_ip_sram__sram256x8m8wm1
*CAP
1 *9155:A1 0.00108202
2 *9634:Q[2] 0.00108202
3 *9155:A1 *9634:D[2] 0
4 *9155:A3 *9155:A1 5.36452e-06
5 *498:12 *9155:A1 0
*RES
1 *9634:Q[2] *9155:A1 21.248 
*END

*D_NET *571 0.00274908
*CONN
*I *9159:A1 I *D gf180mcu_fd_sc_mcu7t5v0__nand3_1
*I *9634:Q[3] O *D gf180mcu_fd_ip_sram__sram256x8m8wm1
*CAP
1 *9159:A1 0.00120845
2 *9634:Q[3] 0.00120845
3 *9161:A1 *9159:A1 1.91996e-05
4 *9634:WEN[3] *9159:A1 0
5 *434:46 *9159:A1 4.18042e-05
6 *498:12 *9159:A1 0.000271172
*RES
1 *9634:Q[3] *9159:A1 23.744 
*END

*D_NET *572 0.00665121
*CONN
*I *9318:A1 I *D gf180mcu_fd_sc_mcu7t5v0__nand3_1
*I *9632:Q[1] O *D gf180mcu_fd_ip_sram__sram256x8m8wm1
*CAP
1 *9318:A1 0.00206422
2 *9632:Q[1] 0.00206422
3 *9318:A1 *9322:A1 0.000704697
4 *9318:A1 *9632:D[1] 0.000137135
5 *9314:A2 *9318:A1 5.77511e-05
6 *9314:A3 *9318:A1 0.00162317
*RES
1 *9632:Q[1] *9318:A1 34.664 
*END

*D_NET *573 0.00898598
*CONN
*I *9163:A1 I *D gf180mcu_fd_sc_mcu7t5v0__nand3_1
*I *9634:Q[4] O *D gf180mcu_fd_ip_sram__sram256x8m8wm1
*CAP
1 *9163:A1 0.00447473
2 *9634:Q[4] 0.00447473
3 *9165:A1 *9163:A1 3.65102e-05
4 *9634:WEN[4] *9163:A1 0
5 *453:22 *9163:A1 0
6 *453:30 *9163:A1 0
7 *453:38 *9163:A1 0
*RES
1 *9634:Q[4] *9163:A1 49.744 
*END

*D_NET *574 0.0136229
*CONN
*I *9167:A1 I *D gf180mcu_fd_sc_mcu7t5v0__nand3_1
*I *9634:Q[5] O *D gf180mcu_fd_ip_sram__sram256x8m8wm1
*CAP
1 *9167:A1 0.00181339
2 *9634:Q[5] 0.00181339
3 *9167:A1 *9634:D[5] 0.00107227
4 *9167:A1 *9634:D[4] 0.00419589
5 *9645:I *9167:A1 0.00145546
6 *261:35 *9167:A1 0.00290543
7 *330:25 *9167:A1 0.000367043
*RES
1 *9634:Q[5] *9167:A1 48.496 
*END

*D_NET *575 0.00220506
*CONN
*I *9171:A1 I *D gf180mcu_fd_sc_mcu7t5v0__nand3_1
*I *9634:Q[6] O *D gf180mcu_fd_ip_sram__sram256x8m8wm1
*CAP
1 *9171:A1 0.000864039
2 *9634:Q[6] 0.000864039
3 *9171:A1 *9634:D[6] 0.000382358
4 *9171:A2 *9171:A1 4.41346e-05
5 *9174:I0 *9171:A1 8.85729e-06
6 *261:35 *9171:A1 5.63044e-06
7 *434:25 *9171:A1 3.59979e-05
*RES
1 *9634:Q[6] *9171:A1 12.04 
*END

*D_NET *576 0.00219301
*CONN
*I *9175:A1 I *D gf180mcu_fd_sc_mcu7t5v0__nand3_1
*I *9634:Q[7] O *D gf180mcu_fd_ip_sram__sram256x8m8wm1
*CAP
1 *9175:A1 0.00107497
2 *9634:Q[7] 0.00107497
3 *9177:A1 *9175:A1 4.30651e-05
4 *9634:WEN[7] *9175:A1 0
5 *453:14 *9175:A1 0
*RES
1 *9634:Q[7] *9175:A1 21.872 
*END

*D_NET *577 0.0111979
*CONN
*I *9180:A1 I *D gf180mcu_fd_sc_mcu7t5v0__nand3_1
*I *9635:Q[0] O *D gf180mcu_fd_ip_sram__sram256x8m8wm1
*CAP
1 *9180:A1 0.00172882
2 *9635:Q[0] 0.00370384
3 *577:11 0.00543266
4 *9635:WEN[0] *577:11 0
5 *192:10 *9180:A1 0.000332625
6 *414:17 *9180:A1 0
7 *452:28 *577:11 0
*RES
1 *9635:Q[0] *577:11 37.652 
2 *577:11 *9180:A1 17.292 
*END

*D_NET *578 0.0384822
*CONN
*I *9184:A1 I *D gf180mcu_fd_sc_mcu7t5v0__nand3_1
*I *9635:Q[1] O *D gf180mcu_fd_ip_sram__sram256x8m8wm1
*CAP
1 *9184:A1 0.00249556
2 *9635:Q[1] 0.000233837
3 *578:13 0.0176971
4 *578:11 0.0154354
5 *578:11 *9635:D[1] 5.02642e-06
6 *431:24 *9184:A1 6.98794e-05
7 *439:35 *9184:A1 3.54107e-05
8 *452:28 *578:11 0.000386808
9 *503:12 *578:13 0.0021232
*RES
1 *9635:Q[1] *578:11 10.612 
2 *578:11 *578:13 119.381 
3 *578:13 *9184:A1 33.5469 
*END

*D_NET *579 0.0144561
*CONN
*I *9188:A1 I *D gf180mcu_fd_sc_mcu7t5v0__nand3_1
*I *9635:Q[2] O *D gf180mcu_fd_ip_sram__sram256x8m8wm1
*CAP
1 *9188:A1 0.00161316
2 *9635:Q[2] 0.00161316
3 *9188:A1 *9192:A1 0.00238039
4 *9188:A1 *9635:D[2] 0
5 *331:39 *9188:A1 0.000464264
6 *437:12 *9188:A1 0.00838519
*RES
1 *9635:Q[2] *9188:A1 41.736 
*END

*D_NET *580 0.0138641
*CONN
*I *9192:A1 I *D gf180mcu_fd_sc_mcu7t5v0__nand3_1
*I *9635:Q[3] O *D gf180mcu_fd_ip_sram__sram256x8m8wm1
*CAP
1 *9192:A1 0.00160745
2 *9635:Q[3] 0.00160745
3 *9188:A1 *9192:A1 0.00238039
4 *9635:WEN[3] *9192:A1 0
5 *331:39 *9192:A1 0.00123779
6 *331:50 *9192:A1 0.00011816
7 *331:52 *9192:A1 0.000200517
8 *437:12 *9192:A1 5.469e-05
9 *437:21 *9192:A1 0.00665764
*RES
1 *9635:Q[3] *9192:A1 43.4 
*END

*D_NET *581 0.00196727
*CONN
*I *9196:A1 I *D gf180mcu_fd_sc_mcu7t5v0__nand3_1
*I *9635:Q[4] O *D gf180mcu_fd_ip_sram__sram256x8m8wm1
*CAP
1 *9196:A1 0.000982227
2 *9635:Q[4] 0.000982227
3 *9196:A3 *9196:A1 2.81522e-06
*RES
1 *9635:Q[4] *9196:A1 11.936 
*END

*D_NET *582 0.00571878
*CONN
*I *9200:A1 I *D gf180mcu_fd_sc_mcu7t5v0__nand3_1
*I *9635:Q[5] O *D gf180mcu_fd_ip_sram__sram256x8m8wm1
*CAP
1 *9200:A1 0.00147599
2 *9635:Q[5] 0.00147599
3 *9200:A1 *9635:D[5] 0
4 *9206:A1 *9200:A1 0
5 *9208:A3 *9200:A1 0.00126415
6 *9210:A1 *9200:A1 0.000283521
7 *278:84 *9200:A1 0.000609567
8 *437:52 *9200:A1 0.000609567
*RES
1 *9635:Q[5] *9200:A1 35.552 
*END

*D_NET *583 0.00635726
*CONN
*I *9322:A1 I *D gf180mcu_fd_sc_mcu7t5v0__nand3_1
*I *9632:Q[2] O *D gf180mcu_fd_ip_sram__sram256x8m8wm1
*CAP
1 *9322:A1 0.00167609
2 *9632:Q[2] 0.00167609
3 *9322:A1 *9632:D[2] 0.000129265
4 *9314:A2 *9322:A1 0.0019334
5 *9314:A3 *9322:A1 5.82251e-05
6 *9318:A1 *9322:A1 0.000704697
7 *9320:A1 *9322:A1 2.42026e-05
8 *9324:A1 *9322:A1 3.65102e-05
9 *332:49 *9322:A1 0.000118787
*RES
1 *9632:Q[2] *9322:A1 31.856 
*END

*D_NET *584 0.00414517
*CONN
*I *9204:A1 I *D gf180mcu_fd_sc_mcu7t5v0__nand3_1
*I *9635:Q[6] O *D gf180mcu_fd_ip_sram__sram256x8m8wm1
*CAP
1 *9204:A1 0.00178447
2 *9635:Q[6] 0.00178447
3 *9204:A1 *9635:D[6] 0.000184081
4 *9204:A3 *9204:A1 2.81522e-06
5 *507:10 *9204:A1 0.000389332
*RES
1 *9635:Q[6] *9204:A1 26.864 
*END

*D_NET *585 0.0068298
*CONN
*I *9208:A1 I *D gf180mcu_fd_sc_mcu7t5v0__nand3_1
*I *9635:Q[7] O *D gf180mcu_fd_ip_sram__sram256x8m8wm1
*CAP
1 *9208:A1 0.00253058
2 *9635:Q[7] 0.00253058
3 *9208:A1 *9635:D[6] 6.92457e-06
4 *9309:A1 *9208:A1 0
5 *9635:WEN[7] *9208:A1 0
6 *331:52 *9208:A1 4.41041e-05
7 *331:67 *9208:A1 0.00160624
8 *331:80 *9208:A1 0.000111369
9 *505:12 *9208:A1 0
*RES
1 *9635:Q[7] *9208:A1 38.408 
*END

*D_NET *586 0.00317417
*CONN
*I *9326:A1 I *D gf180mcu_fd_sc_mcu7t5v0__nand3_1
*I *9632:Q[3] O *D gf180mcu_fd_ip_sram__sram256x8m8wm1
*CAP
1 *9326:A1 0.00156391
2 *9632:Q[3] 0.00156391
3 *9328:A1 *9326:A1 4.63426e-05
4 *9632:WEN[3] *9326:A1 0
5 *332:47 *9326:A1 0
*RES
1 *9632:Q[3] *9326:A1 26.032 
*END

*D_NET *587 0.00405242
*CONN
*I *9330:A1 I *D gf180mcu_fd_sc_mcu7t5v0__nand3_1
*I *9632:Q[4] O *D gf180mcu_fd_ip_sram__sram256x8m8wm1
*CAP
1 *9330:A1 0.0016659
2 *9632:Q[4] 0.0016659
3 *9330:A2 *9330:A1 8.01631e-05
4 *9330:A3 *9330:A1 5.63044e-06
5 *9464:I *9330:A1 1.00618e-05
6 *9632:WEN[4] *9330:A1 0
7 *9663:I *9330:A1 0.000169549
8 *458:14 *9330:A1 0.000455211
*RES
1 *9632:Q[4] *9330:A1 26.864 
*END

*D_NET *588 0.00229972
*CONN
*I *9334:A1 I *D gf180mcu_fd_sc_mcu7t5v0__nand3_1
*I *9632:Q[5] O *D gf180mcu_fd_ip_sram__sram256x8m8wm1
*CAP
1 *9334:A1 0.000951025
2 *9632:Q[5] 0.000951025
3 *9334:A1 *9632:D[6] 1.36398e-06
4 *9334:A1 *9632:D[5] 0.000348082
5 *332:35 *9334:A1 1.19584e-05
6 *458:14 *9334:A1 3.62642e-05
*RES
1 *9632:Q[5] *9334:A1 21.04 
*END

*D_NET *589 0.00215335
*CONN
*I *9338:A1 I *D gf180mcu_fd_sc_mcu7t5v0__nand3_1
*I *9632:Q[6] O *D gf180mcu_fd_ip_sram__sram256x8m8wm1
*CAP
1 *9338:A1 0.000578848
2 *9632:Q[6] 0.000578848
3 *9338:A1 *9632:D[6] 0.000800285
4 *9338:A3 *9338:A1 2.81522e-06
5 *332:18 *9338:A1 0.00019255
*RES
1 *9632:Q[6] *9338:A1 11.104 
*END

*D_NET *590 0.0097888
*CONN
*I *9342:A1 I *D gf180mcu_fd_sc_mcu7t5v0__nand3_1
*I *9632:Q[7] O *D gf180mcu_fd_ip_sram__sram256x8m8wm1
*CAP
1 *9342:A1 0.00166368
2 *9632:Q[7] 0.00166368
3 *9342:A1 *9213:A1 5.9188e-05
4 *9238:A2 *9342:A1 0.00198264
5 *9241:B2 *9342:A1 0.000222373
6 *9342:A2 *9342:A1 0.000127001
7 *9342:A3 *9342:A1 7.4982e-06
8 *9447:D *9342:A1 0.000116466
9 *9470:I *9342:A1 0.000132553
10 *9632:WEN[7] *9342:A1 0
11 *9653:I *9342:A1 0.00148792
12 *332:18 *9342:A1 6.8199e-07
13 *367:12 *9342:A1 0.00103527
14 *378:176 *9342:A1 7.99569e-05
15 *432:17 *9342:A1 0.000394726
16 *433:10 *9342:A1 0.000690312
17 *458:14 *9342:A1 4.41424e-06
18 *517:20 *9342:A1 0.000120448
*RES
1 *9632:Q[7] *9342:A1 34.248 
*END

*D_NET *591 0.0104094
*CONN
*I *9346:A1 I *D gf180mcu_fd_sc_mcu7t5v0__nand3_1
*I *9633:Q[0] O *D gf180mcu_fd_ip_sram__sram256x8m8wm1
*CAP
1 *9346:A1 0.00112562
2 *9633:Q[0] 0.00112562
3 *9282:A1 *9346:A1 0
4 *9282:A3 *9346:A1 0
5 *9442:D *9346:A1 0
6 *9633:WEN[0] *9346:A1 0
7 *258:20 *9346:A1 0.00389682
8 *370:49 *9346:A1 0.00389976
9 *439:16 *9346:A1 0.000361616
*RES
1 *9633:Q[0] *9346:A1 29.88 
*END

*D_NET *592 0.00297586
*CONN
*I *9350:A1 I *D gf180mcu_fd_sc_mcu7t5v0__nand3_1
*I *9633:Q[1] O *D gf180mcu_fd_ip_sram__sram256x8m8wm1
*CAP
1 *9350:A1 0.00112996
2 *9633:Q[1] 0.00112996
3 *9350:A1 *9633:D[2] 0.000214117
4 *9350:A1 *9633:D[1] 0.000201446
5 *190:23 *9350:A1 0.000147748
6 *190:33 *9350:A1 4.04633e-05
7 *440:10 *9350:A1 3.4596e-05
8 *440:21 *9350:A1 4.83967e-05
9 *448:61 *9350:A1 0
10 *455:18 *9350:A1 2.91621e-05
*RES
1 *9633:Q[1] *9350:A1 22.496 
*END

*D_NET *593 0.0045072
*CONN
*I *9131:A2 I *D gf180mcu_fd_sc_mcu7t5v0__nand2_1
*I *9132:A2 I *D gf180mcu_fd_sc_mcu7t5v0__aoi21_1
*I *9451:Q O *D gf180mcu_fd_sc_mcu7t5v0__dffrnq_1
*CAP
1 *9131:A2 0
2 *9132:A2 0.000297048
3 *9451:Q 0.000989375
4 *593:12 0.00128642
5 *9132:A2 *9131:A1 0.000324785
6 *593:12 *9131:A1 3.82231e-05
7 *9140:A2 *593:12 5.3503e-05
8 *9312:A2 *9132:A2 0.000103788
9 *249:12 *9132:A2 4.16532e-05
10 *249:12 *593:12 0.000739119
11 *257:18 *9132:A2 0.000105297
12 *299:12 *9132:A2 0.000254913
13 *299:12 *593:12 7.54092e-05
14 *299:16 *593:12 7.38424e-05
15 *438:56 *593:12 4.75296e-05
16 *438:72 *593:12 6.79366e-05
17 *449:82 *593:12 8.35178e-06
*RES
1 *9451:Q *593:12 21.196 
2 *593:12 *9132:A2 16.204 
3 *593:12 *9131:A2 4.5 
*END

*D_NET *594 0.0635637
*CONN
*I *9221:A2 I *D gf180mcu_fd_sc_mcu7t5v0__and2_1
*I *9454:I I *D gf180mcu_fd_sc_mcu7t5v0__buf_1
*I *9215:A2 I *D gf180mcu_fd_sc_mcu7t5v0__and2_1
*I *9214:A2 I *D gf180mcu_fd_sc_mcu7t5v0__and2_1
*I *9219:A2 I *D gf180mcu_fd_sc_mcu7t5v0__and2_1
*I *9222:A2 I *D gf180mcu_fd_sc_mcu7t5v0__and2_1
*I *9216:A2 I *D gf180mcu_fd_sc_mcu7t5v0__and2_1
*I *9233:A2 I *D gf180mcu_fd_sc_mcu7t5v0__and2_1
*I *9213:A2 I *D gf180mcu_fd_sc_mcu7t5v0__and2_1
*I *9220:A2 I *D gf180mcu_fd_sc_mcu7t5v0__and2_1
*I *9217:A2 I *D gf180mcu_fd_sc_mcu7t5v0__and2_1
*I *9218:A2 I *D gf180mcu_fd_sc_mcu7t5v0__and2_1
*I *9212:ZN O *D gf180mcu_fd_sc_mcu7t5v0__aoi21_1
*CAP
1 *9221:A2 0.000119045
2 *9454:I 0
3 *9215:A2 0
4 *9214:A2 0
5 *9219:A2 0.000103831
6 *9222:A2 9.97263e-05
7 *9216:A2 0.00010599
8 *9233:A2 0.000336567
9 *9213:A2 0
10 *9220:A2 0
11 *9217:A2 0.000444786
12 *9218:A2 0.000454439
13 *9212:ZN 0.0001643
14 *594:161 0.000226704
15 *594:146 0.000316875
16 *594:135 0.000543201
17 *594:129 0.000847727
18 *594:119 0.000745916
19 *594:117 0.00141016
20 *594:83 0.00135449
21 *594:38 0.00128405
22 *594:32 0.000757334
23 *594:26 0.00323564
24 *594:12 0.00391956
25 *594:8 0.00125279
26 *9217:A2 *606:8 0.000390663
27 *9217:A2 *607:10 0.000225635
28 *9218:A2 *9218:A1 1.71326e-05
29 *9221:A2 *9389:I1 9.76253e-05
30 *9221:A2 *613:22 9.76253e-05
31 *9222:A2 *9214:A1 1.61622e-06
32 *9233:A2 *9213:A1 7.05604e-05
33 *594:38 *9220:A1 0.000244137
34 *594:83 *9450:D 0.000126395
35 *594:117 *9135:A1 0.000106592
36 *594:117 *9138:A3 0.000106334
37 *594:117 *9633:D[0] 0.000106189
38 *594:119 *9138:A3 0.000589413
39 *594:119 *9633:D[0] 9.11733e-05
40 *594:129 *9138:A3 0.000419311
41 *594:129 *9633:D[0] 6.69307e-05
42 tl_o[13] *9219:A2 0.0006747
43 tl_o[24] *9219:A2 0.000276007
44 tl_o[24] *594:161 0.000191171
45 tl_o[25] *9219:A2 0.00026679
46 tl_o[25] *594:161 0.000225767
47 tl_o[4] *594:26 0.000300057
48 tl_o[4] *594:83 0.000353921
49 tl_o[56] *594:146 0
50 tl_o[58] *594:129 0.000487069
51 tl_o[60] *9217:A2 0.000805679
52 tl_o[65] *9216:A2 4.41424e-06
53 tl_o[65] *9222:A2 0.000236426
54 tl_o[65] *594:129 0.000172131
55 tl_o[8] *9233:A2 0.000314237
56 *9135:A2 *594:83 9.96348e-05
57 *9138:A4 *594:129 0.000196874
58 *9186:A1 *594:117 0.00222503
59 *9227:A1 *594:26 9.49602e-05
60 *9227:A2 *594:26 6.6879e-06
61 *9230:A2 *594:26 3.12171e-05
62 *9234:A2 *594:83 0.000332906
63 *9234:B *594:83 4.415e-05
64 *9249:A2 *594:26 0.000991388
65 *9253:A1 *9221:A2 0.00115563
66 *9254:A2 *594:117 0.000245726
67 *9254:A3 *594:117 2.46831e-05
68 *9261:A1 *594:26 0.00011113
69 *9263:A3 *594:117 0.000425985
70 *9270:A2 *594:83 0.00017298
71 *9280:A1 *9217:A2 1.81425e-05
72 *9280:A1 *594:32 0
73 *9280:A1 *594:38 2.19717e-05
74 *9311:A1 *9233:A2 7.13509e-06
75 *9311:A1 *594:83 0.00085588
76 *9333:I0 *594:32 9.30909e-05
77 *9341:I0 *594:38 0.000551292
78 *9381:I0 *594:26 0.000279926
79 *9382:I0 *594:129 0.00135996
80 *9382:I0 *594:146 6.31301e-05
81 *9382:I0 *594:161 2.83242e-05
82 *9384:I0 *594:129 0.000596407
83 *9384:I0 *594:135 0.000461585
84 *9385:I0 *594:129 6.17392e-05
85 *9385:S *594:135 0.000106889
86 *9386:S *594:26 0.000946576
87 *9393:I0 *594:117 0.000511206
88 *9394:A2 *594:26 0.00189257
89 *9395:B *594:26 0.00682907
90 *9450:CLK *594:83 0.000156081
91 *9452:I *9233:A2 2.66445e-05
92 *9452:I *594:83 7.80235e-06
93 *9481:I *594:26 0.000264477
94 *9488:I *9219:A2 3.57634e-06
95 *9499:I *9219:A2 0.000103788
96 *9520:I *9216:A2 0.000236426
97 *9520:I *594:135 0.000879474
98 *9573:I *594:129 0.00057105
99 *9573:I *594:135 0.00226934
100 *9574:I *9217:A2 1.48679e-05
101 *9574:I *594:38 1.16992e-05
102 *9579:I *9222:A2 1.65142e-05
103 *9581:I *9219:A2 0.000461647
104 *9639:I *594:129 6.28659e-05
105 *245:14 *594:8 3.4596e-05
106 *253:12 *594:8 4.07478e-05
107 *256:12 *594:8 7.58291e-05
108 *295:20 *594:26 0
109 *304:18 *9233:A2 0.000306296
110 *328:12 *594:26 6.41072e-05
111 *365:14 *594:26 4.41346e-05
112 *367:29 *594:117 0.000698829
113 *370:49 *594:12 0.00126522
114 *370:49 *594:117 0.00114976
115 *371:18 *9221:A2 0.00115766
116 *371:18 *594:12 0.000544563
117 *371:18 *594:117 0.000345331
118 *372:18 *594:26 0.000102011
119 *372:18 *594:32 4.15617e-05
120 *372:53 *594:117 0.000244036
121 *375:92 *594:129 1.23904e-05
122 *375:94 *594:161 0.000204638
123 *380:43 *594:117 6.76194e-05
124 *380:47 *594:117 0.000116476
125 *380:207 *594:83 3.4596e-05
126 *393:8 *9218:A2 7.16355e-05
127 *396:18 *594:32 0.000336079
128 *401:20 *9233:A2 0.000329068
129 *404:14 *594:8 1.29324e-05
130 *404:14 *594:26 0
131 *405:23 *594:26 3.80112e-05
132 *405:25 *594:26 5.24257e-05
133 *405:31 *594:26 0.000360081
134 *407:20 *594:83 4.08204e-05
135 *408:25 *9233:A2 8.96632e-05
136 *411:12 *9218:A2 0.000818781
137 *411:12 *594:32 1.23682e-05
138 *411:12 *594:38 0.000684648
139 *421:13 *594:135 3.42651e-05
140 *421:41 *594:135 0.000186082
141 *438:12 *9217:A2 3.20915e-05
142 *438:12 *9218:A2 9.26642e-05
143 *449:16 *9218:A2 4.44008e-05
144 *449:38 *594:83 0.000195919
145 *460:14 *594:26 1.42358e-05
146 *460:77 *594:26 0.00034356
147 *460:81 *594:26 0.000415524
148 *460:106 *594:26 7.81311e-05
149 *460:110 *594:26 0.000172353
150 *460:123 *594:26 3.54009e-05
151 *484:22 *594:117 0.000406476
152 *484:22 *594:135 0.00018553
153 *484:22 *594:146 0.000543132
154 *484:22 *594:161 0.000614897
155 *543:16 *9219:A2 5.31759e-05
*RES
1 *9212:ZN *594:8 10.144 
2 *594:8 *594:12 7.724 
3 *594:12 *594:26 48.444 
4 *594:26 *594:32 8.036 
5 *594:32 *594:38 8.66 
6 *594:38 *9218:A2 13.16 
7 *594:38 *9217:A2 13.888 
8 *594:32 *9220:A2 4.5 
9 *594:12 *594:83 31.34 
10 *594:83 *9213:A2 9 
11 *594:83 *9233:A2 12.432 
12 *594:8 *594:117 28.476 
13 *594:117 *594:119 1.976 
14 *594:119 *594:129 16.8 
15 *594:129 *594:135 11.364 
16 *594:135 *9216:A2 9.728 
17 *594:135 *594:146 1.56 
18 *594:146 *9222:A2 9.728 
19 *594:146 *594:161 6.996 
20 *594:161 *9219:A2 16.308 
21 *594:161 *9214:A2 4.5 
22 *594:129 *9215:A2 4.5 
23 *594:119 *9454:I 4.5 
24 *594:117 *9221:A2 17.036 
*END

*D_NET *595 0.0204661
*CONN
*I *9131:A1 I *D gf180mcu_fd_sc_mcu7t5v0__nand2_1
*I *9132:A1 I *D gf180mcu_fd_sc_mcu7t5v0__aoi21_1
*I *9127:I I *D gf180mcu_fd_sc_mcu7t5v0__clkinv_1
*I *9134:A1 I *D gf180mcu_fd_sc_mcu7t5v0__nand2_1
*I *9231:A1 I *D gf180mcu_fd_sc_mcu7t5v0__nor2_1
*I *9269:A1 I *D gf180mcu_fd_sc_mcu7t5v0__and2_1
*I *9448:Q O *D gf180mcu_fd_sc_mcu7t5v0__dffrnq_1
*CAP
1 *9131:A1 0.000359177
2 *9132:A1 0
3 *9127:I 0
4 *9134:A1 0.00018139
5 *9231:A1 0.000243122
6 *9269:A1 0.00122239
7 *9448:Q 0
8 *595:66 0.000561686
9 *595:33 0.000780078
10 *595:31 0.000435306
11 *595:29 0.000718534
12 *595:4 0.00165867
13 *9269:A1 *9269:A2 0.00117225
14 *9269:A1 *603:10 0
15 tl_o[4] *9134:A1 1.65832e-05
16 tl_o[4] *595:33 0.000443723
17 *9132:A2 *9131:A1 0.000324785
18 *9138:A1 *9269:A1 0
19 *9235:A2 *9269:A1 0.000252422
20 *9236:A2 *9134:A1 0.000389764
21 *9241:B1 *9231:A1 3.4596e-05
22 *9245:B *9231:A1 0.00014878
23 *9253:A2 *9269:A1 0.000631223
24 *9254:A3 *9269:A1 0.000665871
25 *9264:A1 *595:29 7.16355e-05
26 *9265:A3 *9269:A1 0.000199998
27 *9265:A3 *595:29 2.51389e-05
28 *9312:A4 *595:29 1.81504e-05
29 *9388:A2 *9269:A1 1.25461e-05
30 *9393:S *9269:A1 9.12352e-05
31 *9441:D *9269:A1 0.000152069
32 *9450:CLK *9134:A1 0.000460013
33 *9470:I *9231:A1 0
34 *9470:I *595:33 0
35 *9471:I *9269:A1 0.000122984
36 *9471:I *595:29 0
37 *9471:I *595:31 0
38 *9471:I *595:33 0
39 *128:26 *9231:A1 0.000428493
40 *245:34 *595:66 0.000194925
41 *245:61 *595:66 0.000139186
42 *249:12 *9131:A1 2.32059e-05
43 *253:25 *595:31 0.000178347
44 *253:25 *595:33 0.000849394
45 *253:25 *595:66 0.000103788
46 *256:12 *9131:A1 0.000663752
47 *256:12 *595:66 0.00219341
48 *257:18 *9131:A1 0.000623004
49 *257:18 *595:66 0.00118571
50 *258:18 *9269:A1 0.000246571
51 *299:12 *9131:A1 1.94497e-05
52 *325:10 *9269:A1 0.000241749
53 *325:12 *9269:A1 0.000250567
54 *375:69 *595:29 0.000125933
55 *380:88 *9134:A1 0.000547101
56 *399:18 *9231:A1 7.22138e-05
57 *399:18 *595:29 0.000342864
58 *399:18 *595:31 2.46957e-05
59 *399:18 *595:33 0.000128787
60 *438:56 *9131:A1 3.3698e-05
61 *449:59 *9231:A1 0.000106582
62 *449:59 *595:33 0.000188241
63 *449:82 *9131:A1 0
64 *512:94 *9269:A1 0.000122089
65 *593:12 *9131:A1 3.82231e-05
*RES
1 *9448:Q *595:4 4.5 
2 *595:4 *9269:A1 25.668 
3 *595:4 *595:29 8.452 
4 *595:29 *595:31 0.728 
5 *595:31 *595:33 3.848 
6 *595:33 *9231:A1 11.392 
7 *595:33 *9134:A1 12.016 
8 *595:31 *9127:I 9 
9 *595:29 *595:66 10.428 
10 *595:66 *9132:A1 4.5 
11 *595:66 *9131:A1 17.556 
*END

*D_NET *596 0.00173428
*CONN
*I *9451:D I *D gf180mcu_fd_sc_mcu7t5v0__dffrnq_1
*I *9268:I0 I *D gf180mcu_fd_sc_mcu7t5v0__mux2_2
*I *9266:ZN O *D gf180mcu_fd_sc_mcu7t5v0__nor2_1
*CAP
1 *9451:D 0.000310371
2 *9268:I0 0.000152215
3 *9266:ZN 0.000462586
4 *9268:I0 *648:34 0.000237629
5 *9451:D *648:34 0.000121346
6 *299:16 *9268:I0 2.00565e-05
7 *299:16 *9451:D 0.0003983
8 *438:72 *9451:D 3.17817e-05
*RES
1 *9266:ZN *9268:I0 10.56 
2 *9266:ZN *9451:D 12.328 
*END

*D_NET *597 0.000900818
*CONN
*I *9448:D I *D gf180mcu_fd_sc_mcu7t5v0__dffrnq_1
*I *9234:ZN O *D gf180mcu_fd_sc_mcu7t5v0__oai21_1
*CAP
1 *9448:D 0.000176858
2 *9234:ZN 0.000176858
3 *9234:A2 *9448:D 0.000547101
4 *404:14 *9448:D 0
*RES
1 *9234:ZN *9448:D 10.56 
*END

*D_NET *598 0.008921
*CONN
*I *9215:A1 I *D gf180mcu_fd_sc_mcu7t5v0__and2_1
*I *9378:I1 I *D gf180mcu_fd_sc_mcu7t5v0__mux2_2
*I *9432:Q O *D gf180mcu_fd_sc_mcu7t5v0__dffq_1
*CAP
1 *9215:A1 0.000599351
2 *9378:I1 0.000234011
3 *9432:Q 0
4 *598:4 0.000833362
5 *9215:A1 *9387:A1 0.00282652
6 tl_o[26] *9215:A1 0.000129103
7 tl_o[54] *9215:A1 0.000382948
8 *9255:A2 *9215:A1 0.0017925
9 *9378:I0 *9378:I1 4.55843e-06
10 *9379:I0 *9378:I1 0.000634069
11 *9387:A2 *9215:A1 0.000400726
12 *9474:I *9215:A1 5.43549e-05
13 *9536:I *9378:I1 0.000802537
14 *9640:I *9378:I1 0
15 *393:14 *9378:I1 0
16 *420:14 *9378:I1 4.99626e-05
17 *514:14 *9215:A1 0.000176997
*RES
1 *9432:Q *598:4 4.5 
2 *598:4 *9378:I1 16.828 
3 *598:4 *9215:A1 24.108 
*END

*D_NET *599 0.00687724
*CONN
*I *9389:I1 I *D gf180mcu_fd_sc_mcu7t5v0__mux2_2
*I *9138:A2 I *D gf180mcu_fd_sc_mcu7t5v0__or4_1
*I *9442:Q O *D gf180mcu_fd_sc_mcu7t5v0__dffq_1
*CAP
1 *9389:I1 0.000353776
2 *9138:A2 0.000203139
3 *9442:Q 5.23953e-05
4 *599:8 0.00060931
5 *9389:I1 *9221:A1 0.000960768
6 *9389:I1 *613:22 0.000130624
7 *9186:A1 *9138:A2 0.000277579
8 *9186:A1 *599:8 3.11112e-05
9 *9221:A2 *9389:I1 9.76253e-05
10 *9282:A1 *9389:I1 0.000723231
11 *9442:D *9389:I1 0.000160184
12 *9442:D *599:8 0.000362263
13 *9573:I *9389:I1 0.000458558
14 *9664:I *9138:A2 0.00014297
15 *9664:I *599:8 0.00012325
16 *367:29 *9138:A2 0.0011905
17 *367:29 *599:8 0.00099996
*RES
1 *9442:Q *599:8 11.6 
2 *599:8 *9138:A2 12.016 
3 *599:8 *9389:I1 14.096 
*END

*D_NET *600 0.00596825
*CONN
*I *9390:I1 I *D gf180mcu_fd_sc_mcu7t5v0__mux2_2
*I *9137:A1 I *D gf180mcu_fd_sc_mcu7t5v0__nand2_1
*I *9443:Q O *D gf180mcu_fd_sc_mcu7t5v0__dffq_1
*CAP
1 *9390:I1 0.000485909
2 *9137:A1 0.000137546
3 *9443:Q 0
4 *600:4 0.000623455
5 *9137:A1 *9137:A2 4.07478e-05
6 *9253:A1 *9137:A1 0.000203739
7 *9253:A1 *9390:I1 3.8282e-05
8 *9390:S *9390:I1 0.001181
9 *9475:I *9390:I1 0.000125283
10 *380:25 *9390:I1 0.000984953
11 *380:29 *9390:I1 0.00206518
12 *473:24 *9137:A1 0
13 *473:24 *9390:I1 8.2153e-05
*RES
1 *9443:Q *600:4 4.5 
2 *600:4 *9137:A1 5.956 
3 *600:4 *9390:I1 22.86 
*END

*D_NET *601 0.00338548
*CONN
*I *9391:I1 I *D gf180mcu_fd_sc_mcu7t5v0__mux2_2
*I *9137:A2 I *D gf180mcu_fd_sc_mcu7t5v0__nand2_1
*I *9444:Q O *D gf180mcu_fd_sc_mcu7t5v0__dffq_1
*CAP
1 *9391:I1 0.000343031
2 *9137:A2 0.000208798
3 *9444:Q 0
4 *601:4 0.00055183
5 *9137:A1 *9137:A2 4.07478e-05
6 *9251:A1 *9391:I1 0.000319051
7 *9252:A2 *9391:I1 0.000634459
8 *9252:A3 *9391:I1 5.52675e-05
9 *9253:A1 *9137:A2 0.000248464
10 *9253:A1 *9391:I1 0.00011923
11 *371:26 *9391:I1 0.000343529
12 *473:24 *9137:A2 2.79913e-05
13 *473:24 *9391:I1 0.000153225
14 *474:44 *9391:I1 0.000339856
*RES
1 *9444:Q *601:4 4.5 
2 *601:4 *9137:A2 6.58 
3 *601:4 *9391:I1 18.284 
*END

*D_NET *602 0.012254
*CONN
*I *9392:I1 I *D gf180mcu_fd_sc_mcu7t5v0__mux2_2
*I *9138:A3 I *D gf180mcu_fd_sc_mcu7t5v0__or4_1
*I *9445:Q O *D gf180mcu_fd_sc_mcu7t5v0__dffq_1
*CAP
1 *9392:I1 0.000175399
2 *9138:A3 0.000703023
3 *9445:Q 0.000293366
4 *602:12 0.00117179
5 *9138:A3 *9633:D[0] 3.21686e-06
6 *9392:I1 *9221:A1 0.000492739
7 *9392:I1 *613:22 0.000272168
8 *9138:A4 *9138:A3 0.00129195
9 *9252:A2 *9138:A3 0.000412695
10 *9252:A2 *602:12 0.00347529
11 *9253:A1 *602:12 4.18157e-05
12 *9255:B *602:12 4.18157e-05
13 *9263:A2 *9392:I1 0.000248378
14 *9473:I *9138:A3 0.000113907
15 *9473:I *602:12 7.00831e-05
16 *9573:I *9138:A3 0.00101322
17 *9573:I *9392:I1 9.15718e-05
18 *9573:I *602:12 2.46957e-05
19 *9584:I *602:12 0.00117674
20 *506:20 *602:12 2.50874e-05
21 *594:117 *9138:A3 0.000106334
22 *594:119 *9138:A3 0.000589413
23 *594:129 *9138:A3 0.000419311
*RES
1 *9445:Q *602:12 18.672 
2 *602:12 *9138:A3 17.528 
3 *602:12 *9392:I1 11.392 
*END

*D_NET *603 0.00978863
*CONN
*I *9269:A2 I *D gf180mcu_fd_sc_mcu7t5v0__and2_1
*I *9393:I1 I *D gf180mcu_fd_sc_mcu7t5v0__mux2_2
*I *9135:A1 I *D gf180mcu_fd_sc_mcu7t5v0__nor2_1
*I *9446:Q O *D gf180mcu_fd_sc_mcu7t5v0__dffq_1
*CAP
1 *9269:A2 0.000274712
2 *9393:I1 3.53579e-05
3 *9135:A1 0.000442402
4 *9446:Q 0.000225128
5 *603:25 0.000406281
6 *603:10 0.000763741
7 *9186:A1 *9135:A1 0.000104893
8 *9186:A1 *603:10 0.00117948
9 *9253:A1 *9269:A2 0.000314618
10 *9269:A1 *9269:A2 0.00117225
11 *9269:A1 *603:10 0
12 *9393:S *9269:A2 0.00117225
13 *256:12 *9135:A1 1.65112e-05
14 *370:49 *9135:A1 0.000793814
15 *370:49 *603:10 0.00114971
16 *371:18 *9269:A2 0.000308511
17 *375:69 *9135:A1 1.33033e-05
18 *380:47 *9135:A1 0.000166666
19 *399:18 *603:10 3.47787e-05
20 *460:150 *9269:A2 8.73583e-05
21 *460:150 *9393:I1 8.21146e-06
22 *460:150 *603:25 5.40367e-05
23 *484:22 *9135:A1 0.000402874
24 *512:94 *9269:A2 0.000245724
25 *512:94 *603:25 0.000309426
26 *594:117 *9135:A1 0.000106592
*RES
1 *9446:Q *603:10 13.16 
2 *603:10 *9135:A1 13.992 
3 *603:10 *603:25 5.436 
4 *603:25 *9393:I1 4.812 
5 *603:25 *9269:A2 18.596 
*END

*D_NET *604 0.0244205
*CONN
*I *9134:A2 I *D gf180mcu_fd_sc_mcu7t5v0__nand2_1
*I *9311:A2 I *D gf180mcu_fd_sc_mcu7t5v0__or2_1
*I *9394:A1 I *D gf180mcu_fd_sc_mcu7t5v0__nand2_1
*I *9447:Q O *D gf180mcu_fd_sc_mcu7t5v0__dffq_1
*CAP
1 *9134:A2 0.000296986
2 *9311:A2 0.000659158
3 *9394:A1 0.000911926
4 *9447:Q 0
5 *604:23 0.00155836
6 *604:6 0.00151415
7 *9394:A1 *9632:D[7] 0.00145825
8 *9234:B *9134:A2 3.69187e-05
9 *9245:A1 *9134:A2 0.000619746
10 *9245:A1 *604:23 0.000571658
11 *9245:A3 *604:23 0.000746465
12 *9265:A2 *9134:A2 0.000371523
13 *9394:A2 *9394:A1 3.4596e-05
14 *9447:D *604:23 0.000887992
15 *9470:I *9311:A2 0.000315749
16 *9470:I *604:23 0.000173459
17 *9554:I *9394:A1 0.000184925
18 *9663:I *9394:A1 0.000177481
19 *9663:I *604:23 0.000668017
20 *128:26 *9311:A2 1.35639e-05
21 *367:29 *9134:A2 0.000163052
22 *367:29 *9394:A1 0.000972564
23 *367:29 *604:23 0.00590575
24 *380:57 *9134:A2 0.000178346
25 *396:18 *9394:A1 0.000547779
26 *433:10 *9394:A1 0.00257107
27 *433:10 *604:23 0.00271465
28 *458:14 *9394:A1 0
29 *513:49 *9311:A2 0.000166332
*RES
1 *9447:Q *604:6 9 
2 *604:6 *9394:A1 22.104 
3 *604:6 *604:23 18.2 
4 *604:23 *9311:A2 22.056 
5 *604:23 *9134:A2 12.432 
*END

*D_NET *605 0.0119383
*CONN
*I *9216:A1 I *D gf180mcu_fd_sc_mcu7t5v0__and2_1
*I *9379:I1 I *D gf180mcu_fd_sc_mcu7t5v0__mux2_2
*I *9433:Q O *D gf180mcu_fd_sc_mcu7t5v0__dffq_1
*CAP
1 *9216:A1 0.000997994
2 *9379:I1 0.000926306
3 *9433:Q 0
4 *605:6 0.0019243
5 *9216:A1 *9222:A1 0.000531148
6 *9216:A1 *611:12 7.93961e-05
7 tl_o[13] *9216:A1 1.23478e-05
8 tl_o[54] *9379:I1 0.000276925
9 tl_o[63] *9216:A1 3.98026e-05
10 *9379:I0 *9379:I1 1.05754e-05
11 *9379:S *9379:I1 0
12 *9433:D *9379:I1 0.000612968
13 *9439:D *9216:A1 0.00161821
14 *9439:CLK *9216:A1 0.000931756
15 *9439:CLK *9379:I1 0.00130762
16 *9479:I *9379:I1 8.44565e-06
17 *9481:I *9379:I1 4.67771e-06
18 *9487:I *9216:A1 0
19 *9532:I *9379:I1 0.00265587
*RES
1 *9433:Q *605:6 9 
2 *605:6 *9379:I1 21.064 
3 *605:6 *9216:A1 19.296 
*END

*D_NET *606 0.0111815
*CONN
*I *9380:I1 I *D gf180mcu_fd_sc_mcu7t5v0__mux2_2
*I *9217:A1 I *D gf180mcu_fd_sc_mcu7t5v0__and2_1
*I *9434:Q O *D gf180mcu_fd_sc_mcu7t5v0__dffq_1
*CAP
1 *9380:I1 0.00125517
2 *9217:A1 0.000131541
3 *9434:Q 0.000178857
4 *606:8 0.00156556
5 *9380:I1 *9220:A1 0.000596312
6 *9380:I1 *9383:I1 0.000581617
7 tl_o[60] *606:8 3.511e-05
8 *9217:A2 *606:8 0.000390663
9 *9341:I0 *606:8 0
10 *9380:S *9380:I1 0.000188241
11 *9437:D *9380:I1 0.00133111
12 *9482:I *9217:A1 0
13 *9482:I *9380:I1 0
14 *9496:I *9217:A1 0
15 *9496:I *9380:I1 0
16 *9497:I *9380:I1 0.00310252
17 *9535:I *9380:I1 0.00012019
18 *9538:I *9380:I1 0
19 *9574:I *606:8 0.00102863
20 *422:20 *9380:I1 0.000597035
21 *422:31 *9380:I1 7.89812e-05
*RES
1 *9434:Q *606:8 12.224 
2 *606:8 *9217:A1 9.936 
3 *606:8 *9380:I1 28.448 
*END

*D_NET *607 0.00785896
*CONN
*I *9381:I1 I *D gf180mcu_fd_sc_mcu7t5v0__mux2_2
*I *9218:A1 I *D gf180mcu_fd_sc_mcu7t5v0__and2_1
*I *9435:Q O *D gf180mcu_fd_sc_mcu7t5v0__dffq_1
*CAP
1 *9381:I1 0.000558832
2 *9218:A1 0.000138577
3 *9435:Q 0.000224629
4 *607:10 0.000922038
5 *9217:A2 *607:10 0.000225635
6 *9218:A2 *9218:A1 1.71326e-05
7 *9229:A2 *9381:I1 0.000557649
8 *9381:I0 *9381:I1 3.45047e-05
9 *9381:S *9381:I1 3.26853e-05
10 *9434:D *9381:I1 0.000665871
11 *9435:D *9381:I1 7.20551e-05
12 *9574:I *607:10 0.00094185
13 *9593:I *9381:I1 0.000105345
14 *9594:I *9381:I1 0.000740586
15 *378:110 *9381:I1 0.00017298
16 *393:14 *9218:A1 0.000159715
17 *393:14 *9381:I1 0.000250231
18 *438:12 *9218:A1 3.22108e-05
19 *438:12 *607:10 0
20 *444:31 *9218:A1 0.000835866
21 *444:31 *9381:I1 0.00117057
22 *449:16 *9218:A1 0
*RES
1 *9435:Q *607:10 11.912 
2 *607:10 *9218:A1 11.496 
3 *607:10 *9381:I1 17.736 
*END

*D_NET *608 0.00245906
*CONN
*I *9219:A1 I *D gf180mcu_fd_sc_mcu7t5v0__and2_1
*I *9382:I1 I *D gf180mcu_fd_sc_mcu7t5v0__mux2_2
*I *9436:Q O *D gf180mcu_fd_sc_mcu7t5v0__dffq_1
*CAP
1 *9219:A1 0
2 *9382:I1 0.000195314
3 *9436:Q 7.24938e-05
4 *608:10 0.000267808
5 tl_o[13] *608:10 0.000235458
6 *9499:I *9382:I1 0.000100372
7 *9581:I *608:10 0.000259996
8 *4:25 *9382:I1 0.000235308
9 *543:16 *608:10 0.00109231
*RES
1 *9436:Q *608:10 16.308 
2 *608:10 *9382:I1 6.268 
3 *608:10 *9219:A1 4.5 
*END

*D_NET *609 0.0111602
*CONN
*I *9383:I1 I *D gf180mcu_fd_sc_mcu7t5v0__mux2_2
*I *9220:A1 I *D gf180mcu_fd_sc_mcu7t5v0__and2_1
*I *9437:Q O *D gf180mcu_fd_sc_mcu7t5v0__dffq_1
*CAP
1 *9383:I1 0.000331811
2 *9220:A1 0.00105611
3 *9437:Q 6.22726e-05
4 *609:8 0.00145019
5 *9280:A1 *9220:A1 0.00149991
6 *9341:I0 *9220:A1 0.000179381
7 *9380:I1 *9220:A1 0.000596312
8 *9380:I1 *9383:I1 0.000581617
9 *9381:S *9220:A1 0.000131187
10 *9381:S *9383:I1 4.66504e-05
11 *9496:I *9220:A1 0.000936893
12 *9497:I *9220:A1 0.00143285
13 *9497:I *9383:I1 0.00165153
14 *9574:I *9220:A1 0.000150407
15 *9593:I *9220:A1 3.97743e-05
16 *9:23 *609:8 8.44565e-06
17 *422:31 *9383:I1 0.00076073
18 *594:38 *9220:A1 0.000244137
*RES
1 *9437:Q *609:8 9.312 
2 *609:8 *9220:A1 23.144 
3 *609:8 *9383:I1 17.008 
*END

*D_NET *610 0.0175067
*CONN
*I *9384:I1 I *D gf180mcu_fd_sc_mcu7t5v0__mux2_2
*I *9221:A1 I *D gf180mcu_fd_sc_mcu7t5v0__and2_1
*I *9438:Q O *D gf180mcu_fd_sc_mcu7t5v0__dffq_1
*CAP
1 *9384:I1 0
2 *9221:A1 0.000984219
3 *9438:Q 0.000635845
4 *610:14 0.00162006
5 tl_o[24] *9221:A1 0.00250681
6 tl_o[25] *9221:A1 0.00156978
7 tl_o[40] *610:14 0.000775602
8 tl_o[56] *610:14 6.33047e-05
9 tl_o[6] *9221:A1 4.91422e-05
10 *9263:A2 *9221:A1 0.000213609
11 *9282:A1 *9221:A1 0.000522013
12 *9389:I1 *9221:A1 0.000960768
13 *9389:S *9221:A1 0.000103788
14 *9392:I1 *9221:A1 0.000492739
15 *9438:D *610:14 0.00359183
16 *9486:I *610:14 0.000775602
17 *9499:I *610:14 1.81425e-05
18 *9526:I *9221:A1 2.54037e-05
19 *9573:I *9221:A1 5.17416e-05
20 *9599:I *610:14 0.00134667
21 *9613:I *610:14 0.000337359
22 *4:25 *610:14 0.00076771
23 *329:12 *9221:A1 4.55764e-06
24 *375:94 *610:14 5.29249e-05
25 *412:64 *9221:A1 3.70435e-05
*RES
1 *9438:Q *610:14 27.748 
2 *610:14 *9221:A1 26.396 
3 *610:14 *9384:I1 4.5 
*END

*D_NET *611 0.00295216
*CONN
*I *9222:A1 I *D gf180mcu_fd_sc_mcu7t5v0__and2_1
*I *9385:I1 I *D gf180mcu_fd_sc_mcu7t5v0__mux2_2
*I *9439:Q O *D gf180mcu_fd_sc_mcu7t5v0__dffq_1
*CAP
1 *9222:A1 2.38168e-05
2 *9385:I1 7.00053e-05
3 *9439:Q 9.07969e-05
4 *611:12 0.000184619
5 tl_o[13] *9222:A1 7.12475e-05
6 tl_o[53] *611:12 4.18157e-05
7 tl_o[58] *9385:I1 0.000313488
8 *9216:A1 *9222:A1 0.000531148
9 *9216:A1 *611:12 7.93961e-05
10 *9439:D *611:12 0.000211436
11 *9520:I *9385:I1 9.35542e-06
12 *9573:I *9385:I1 0.000235068
13 *543:16 *9222:A1 0.000713492
14 *543:16 *611:12 0.000376472
*RES
1 *9439:Q *611:12 10.56 
2 *611:12 *9385:I1 9.936 
3 *611:12 *9222:A1 10.976 
*END

*D_NET *612 0.0114752
*CONN
*I *9213:A1 I *D gf180mcu_fd_sc_mcu7t5v0__and2_1
*I *9386:I1 I *D gf180mcu_fd_sc_mcu7t5v0__mux2_2
*I *9440:Q O *D gf180mcu_fd_sc_mcu7t5v0__dffq_1
*CAP
1 *9213:A1 0.00210165
2 *9386:I1 0.000279684
3 *9440:Q 0
4 *612:4 0.00238133
5 tl_o[8] *9213:A1 0.000569167
6 *9233:A2 *9213:A1 7.05604e-05
7 *9238:A1 *9386:I1 0
8 *9238:A2 *9213:A1 0.0014457
9 *9241:B2 *9213:A1 6.18025e-05
10 *9311:A1 *9213:A1 9.22811e-05
11 *9342:A1 *9213:A1 5.9188e-05
12 *9632:WEN[7] *9213:A1 0.00116702
13 *304:18 *9213:A1 3.53822e-05
14 *332:14 *9213:A1 8.42563e-06
15 *401:20 *9213:A1 4.97341e-06
16 *402:18 *9213:A1 0.00109367
17 *405:38 *9213:A1 0.000122244
18 *405:38 *9386:I1 1.33181e-05
19 *407:22 *9213:A1 0.00168309
20 *435:8 *9213:A1 0.000285688
*RES
1 *9440:Q *612:4 4.5 
2 *612:4 *9386:I1 6.372 
3 *612:4 *9213:A1 39.188 
*END

*D_NET *613 0.0210988
*CONN
*I *9387:A1 I *D gf180mcu_fd_sc_mcu7t5v0__nand2_1
*I *9214:A1 I *D gf180mcu_fd_sc_mcu7t5v0__and2_1
*I *9441:Q O *D gf180mcu_fd_sc_mcu7t5v0__dffq_1
*CAP
1 *9387:A1 0.000700359
2 *9214:A1 0.000411949
3 *9441:Q 0.00130681
4 *613:22 0.00241912
5 tl_o[24] *9214:A1 0.00199475
6 tl_o[24] *9387:A1 0.000386417
7 tl_o[25] *613:22 0.000281179
8 tl_o[53] *613:22 3.95619e-06
9 tl_o[58] *613:22 3.57634e-06
10 tl_o[65] *9214:A1 0
11 *9215:A1 *9387:A1 0.00282652
12 *9221:A2 *613:22 9.76253e-05
13 *9222:A2 *9214:A1 1.61622e-06
14 *9224:A2 *9387:A1 4.26427e-05
15 *9248:A3 *9387:A1 4.01571e-05
16 *9248:A3 *613:22 0.000147311
17 *9252:A2 *613:22 0.000174813
18 *9255:A1 *613:22 0.00049061
19 *9255:A2 *9387:A1 0.000600451
20 *9262:B *9387:A1 0.000194852
21 *9263:A2 *613:22 8.6536e-05
22 *9382:I0 *9214:A1 0.000113016
23 *9382:S *9214:A1 0.000330462
24 *9384:I0 *9214:A1 0.00046038
25 *9384:I0 *9387:A1 7.22679e-05
26 *9389:I1 *613:22 0.000130624
27 *9392:I1 *613:22 0.000272168
28 *9442:D *613:22 0.000802749
29 *9540:I *613:22 0.000131527
30 *9572:I *613:22 0.000294959
31 *9573:I *613:22 0.000743981
32 *9579:I *9214:A1 1.03283e-05
33 *9581:I *613:22 4.58147e-05
34 *4:25 *613:22 1.20237e-05
35 *371:18 *613:22 0.000548941
36 *375:92 *9214:A1 5.35362e-06
37 *375:92 *9387:A1 1.57848e-05
38 *380:35 *613:22 0.000560708
39 *412:64 *613:22 0.0003309
40 *514:14 *9387:A1 0.00400555
*RES
1 *9441:Q *613:22 35.916 
2 *613:22 *9214:A1 10.22 
3 *613:22 *9387:A1 26.916 
*END

*D_NET *614 0.00589623
*CONN
*I *9140:A1 I *D gf180mcu_fd_sc_mcu7t5v0__or2_1
*I *9139:A1 I *D gf180mcu_fd_sc_mcu7t5v0__nor2_1
*I *9132:B I *D gf180mcu_fd_sc_mcu7t5v0__aoi21_1
*I *9450:Q O *D gf180mcu_fd_sc_mcu7t5v0__dffrnq_1
*CAP
1 *9140:A1 3.6366e-05
2 *9139:A1 0.000245199
3 *9132:B 4.58836e-05
4 *9450:Q 0.000344
5 *614:23 0.000467892
6 *614:10 0.00057621
7 *9312:A1 *614:10 0.00112378
8 *9312:A3 *614:10 0.000173451
9 *9375:I1 *9132:B 8.23267e-05
10 *9375:I1 *9139:A1 0.000449698
11 *9375:I1 *614:10 0.000257002
12 *9375:I1 *614:23 0.000380013
13 *9451:RN *614:23 9.75661e-05
14 *256:12 *614:23 4.49307e-05
15 *375:69 *9139:A1 0.000302046
16 *375:69 *614:10 4.5609e-05
17 *375:69 *614:23 0.00025426
18 *407:57 *614:10 0.000970001
*RES
1 *9450:Q *614:10 14.616 
2 *614:10 *9132:B 9.52 
3 *614:10 *614:23 7.516 
4 *614:23 *9139:A1 8.036 
5 *614:23 *9140:A1 4.812 
*END

*D_NET *615 0.000987484
*CONN
*I *9450:D I *D gf180mcu_fd_sc_mcu7t5v0__dffrnq_1
*I *9270:ZN O *D gf180mcu_fd_sc_mcu7t5v0__aoi21_1
*CAP
1 *9450:D 0.000158057
2 *9270:ZN 0.000158057
3 *9136:A2 *9450:D 0.000212069
4 *9234:A2 *9450:D 0.000332906
5 *404:14 *9450:D 0
6 *594:83 *9450:D 0.000126395
*RES
1 *9270:ZN *9450:D 10.976 
*END

*D_NET *616 0.0025608
*CONN
*I *9323:A1 I *D gf180mcu_fd_sc_mcu7t5v0__nand2_1
*I *9402:Q O *D gf180mcu_fd_sc_mcu7t5v0__dffq_1
*CAP
1 *9323:A1 0.00019598
2 *9402:Q 0.00019598
3 *9320:A2 *9323:A1 0
4 *9323:A2 *9323:A1 0.000332316
5 *9324:A2 *9323:A1 0.00084993
6 *198:12 *9323:A1 5.63044e-06
7 *199:10 *9323:A1 0.000844673
8 *424:39 *9323:A1 0.000136293
*RES
1 *9402:Q *9323:A1 21.744 
*END

*D_NET *617 0.00108606
*CONN
*I *9327:A1 I *D gf180mcu_fd_sc_mcu7t5v0__nand2_1
*I *9403:Q O *D gf180mcu_fd_sc_mcu7t5v0__dffq_1
*CAP
1 *9327:A1 0.000369044
2 *9403:Q 0.000369044
3 *9325:I0 *9327:A1 0.000125251
4 *9328:A2 *9327:A1 0.000222723
*RES
1 *9403:Q *9327:A1 12.536 
*END

*D_NET *618 0.0018186
*CONN
*I *9331:A1 I *D gf180mcu_fd_sc_mcu7t5v0__nand2_1
*I *9404:Q O *D gf180mcu_fd_sc_mcu7t5v0__dffq_1
*CAP
1 *9331:A1 0.000307489
2 *9404:Q 0.000307489
3 *9331:A1 *9632:D[5] 0
4 *9332:A1 *9331:A1 0.000367043
5 *9332:A2 *9331:A1 0.000447626
6 *201:10 *9331:A1 5.60123e-05
7 *375:74 *9331:A1 1.60028e-05
8 *378:71 *9331:A1 7.05278e-05
9 *424:29 *9331:A1 0.000246407
*RES
1 *9404:Q *9331:A1 22.16 
*END

*D_NET *619 0.00284386
*CONN
*I *9335:A1 I *D gf180mcu_fd_sc_mcu7t5v0__nand2_1
*I *9405:Q O *D gf180mcu_fd_sc_mcu7t5v0__dffq_1
*CAP
1 *9335:A1 0.000253704
2 *9405:Q 0.000253704
3 *9335:A1 *9343:A1 0.00131969
4 *9335:A2 *9335:A1 0.00017298
5 *9340:A2 *9335:A1 0.000337769
6 *9406:CLK *9335:A1 3.10673e-05
7 *378:80 *9335:A1 3.646e-05
8 *424:19 *9335:A1 0.000187084
9 *460:30 *9335:A1 0.0002514
*RES
1 *9405:Q *9335:A1 22.472 
*END

*D_NET *620 0.00205821
*CONN
*I *9339:A1 I *D gf180mcu_fd_sc_mcu7t5v0__nand2_1
*I *9406:Q O *D gf180mcu_fd_sc_mcu7t5v0__dffq_1
*CAP
1 *9339:A1 0.000464667
2 *9406:Q 0.000464667
3 *9339:A1 *9343:A1 1.23682e-05
4 *9339:A1 *9632:D[6] 0.000274978
5 *9333:I0 *9339:A1 0.000115366
6 *9339:A2 *9339:A1 0.000113027
7 *9340:A1 *9339:A1 1.36398e-06
8 *9340:A2 *9339:A1 0.000125945
9 *201:10 *9339:A1 3.71243e-05
10 *203:12 *9339:A1 0
11 *328:20 *9339:A1 4.39823e-05
12 *328:22 *9339:A1 3.20057e-06
13 *438:12 *9339:A1 0
14 *449:16 *9339:A1 0.000401518
*RES
1 *9406:Q *9339:A1 22.992 
*END

*D_NET *621 0.00573815
*CONN
*I *9343:A1 I *D gf180mcu_fd_sc_mcu7t5v0__nand2_1
*I *9407:Q O *D gf180mcu_fd_sc_mcu7t5v0__dffq_1
*CAP
1 *9343:A1 0.000344745
2 *9407:Q 0.000344745
3 *9343:A1 *9632:D[6] 0
4 *9335:A1 *9343:A1 0.00131969
5 *9337:I0 *9343:A1 0.000642367
6 *9339:A1 *9343:A1 1.23682e-05
7 *9340:A1 *9343:A1 0.00086392
8 *9340:A2 *9343:A1 6.53438e-05
9 *378:80 *9343:A1 0.00114349
10 *378:91 *9343:A1 0.000788837
11 *378:102 *9343:A1 0.000188241
12 *424:19 *9343:A1 5.65788e-06
13 *460:22 *9343:A1 1.87342e-05
*RES
1 *9407:Q *9343:A1 25.904 
*END

*D_NET *622 0.00300039
*CONN
*I *9347:A1 I *D gf180mcu_fd_sc_mcu7t5v0__nand2_1
*I *9408:Q O *D gf180mcu_fd_sc_mcu7t5v0__dffq_1
*CAP
1 *9347:A1 0.000987622
2 *9408:Q 0.000987622
3 *9283:A1 *9347:A1 1.32276e-05
4 *9408:D *9347:A1 3.38226e-05
5 *9443:D *9347:A1 0.000103788
6 *9596:I *9347:A1 3.22532e-06
7 *9639:I *9347:A1 3.45692e-05
8 *205:12 *9347:A1 5.18292e-05
9 *419:14 *9347:A1 0.00061506
10 *445:14 *9347:A1 0.000169622
11 *448:61 *9347:A1 0
*RES
1 *9408:Q *9347:A1 16.8 
*END

*D_NET *623 0.0010153
*CONN
*I *9351:A1 I *D gf180mcu_fd_sc_mcu7t5v0__nand2_1
*I *9409:Q O *D gf180mcu_fd_sc_mcu7t5v0__dffq_1
*CAP
1 *9351:A1 0.000389358
2 *9409:Q 0.000389358
3 *9351:A2 *9351:A1 3.4596e-05
4 *428:8 *9351:A1 8.21146e-06
5 *428:27 *9351:A1 0.000193782
*RES
1 *9409:Q *9351:A1 12.536 
*END

*D_NET *624 0.00108953
*CONN
*I *9355:A1 I *D gf180mcu_fd_sc_mcu7t5v0__nand2_1
*I *9410:Q O *D gf180mcu_fd_sc_mcu7t5v0__dffq_1
*CAP
1 *9355:A1 0.000190052
2 *9410:Q 0.000190052
3 *9355:A1 *9633:D[1] 0.000203739
4 *9352:A2 *9355:A1 0.00037585
5 *9353:I0 *9355:A1 7.60693e-05
6 *9411:CLK *9355:A1 5.37658e-05
*RES
1 *9410:Q *9355:A1 20.496 
*END

*D_NET *625 0.00143997
*CONN
*I *9359:A1 I *D gf180mcu_fd_sc_mcu7t5v0__nand2_1
*I *9411:Q O *D gf180mcu_fd_sc_mcu7t5v0__dffq_1
*CAP
1 *9359:A1 0.000719985
2 *9411:Q 0.000719985
3 *208:10 *9359:A1 0
*RES
1 *9411:Q *9359:A1 14.096 
*END

*D_NET *626 0.000981427
*CONN
*I *9363:A1 I *D gf180mcu_fd_sc_mcu7t5v0__nand2_1
*I *9412:Q O *D gf180mcu_fd_sc_mcu7t5v0__dffq_1
*CAP
1 *9363:A1 0.000429284
2 *9412:Q 0.000429284
3 *9145:I0 *9363:A1 0
4 *9363:A2 *9363:A1 0.000113027
5 *209:10 *9363:A1 9.8328e-06
*RES
1 *9412:Q *9363:A1 11.392 
*END

*D_NET *627 0.000694409
*CONN
*I *9367:A1 I *D gf180mcu_fd_sc_mcu7t5v0__nand2_1
*I *9413:Q O *D gf180mcu_fd_sc_mcu7t5v0__dffq_1
*CAP
1 *9367:A1 0.000265331
2 *9413:Q 0.000265331
3 *9415:D *9367:A1 0
4 *210:10 *9367:A1 0.000126046
5 *211:10 *9367:A1 3.77005e-05
6 *212:12 *9367:A1 0
*RES
1 *9413:Q *9367:A1 11.184 
*END

*D_NET *628 0.00141822
*CONN
*I *9371:A1 I *D gf180mcu_fd_sc_mcu7t5v0__nand2_1
*I *9414:Q O *D gf180mcu_fd_sc_mcu7t5v0__dffq_1
*CAP
1 *9371:A1 0.000652599
2 *9414:Q 0.000652599
3 *9371:A2 *9371:A1 0.000113027
4 *9413:D *9371:A1 0
5 *211:10 *9371:A1 0
*RES
1 *9414:Q *9371:A1 13.472 
*END

*D_NET *629 0.00109743
*CONN
*I *9143:A1 I *D gf180mcu_fd_sc_mcu7t5v0__nand2_1
*I *9415:Q O *D gf180mcu_fd_sc_mcu7t5v0__dffq_1
*CAP
1 *9143:A1 0.00025315
2 *9415:Q 0.00025315
3 *9143:A1 *9633:D[4] 7.27179e-05
4 *9144:A1 *9143:A1 0.000199988
5 *9372:A1 *9143:A1 0.0001823
6 *212:12 *9143:A1 0.000136122
*RES
1 *9415:Q *9143:A1 21.12 
*END

*D_NET *630 0.000761257
*CONN
*I *9148:A1 I *D gf180mcu_fd_sc_mcu7t5v0__nand2_1
*I *9416:Q O *D gf180mcu_fd_sc_mcu7t5v0__dffq_1
*CAP
1 *9148:A1 0.000340664
2 *9416:Q 0.000340664
3 *9148:A2 *9148:A1 7.9929e-05
*RES
1 *9416:Q *9148:A1 20.496 
*END

*D_NET *631 0.000744333
*CONN
*I *9152:A1 I *D gf180mcu_fd_sc_mcu7t5v0__nand2_1
*I *9417:Q O *D gf180mcu_fd_sc_mcu7t5v0__dffq_1
*CAP
1 *9152:A1 0.000267687
2 *9417:Q 0.000267687
3 *9149:A2 *9152:A1 0
4 *9152:A2 *9152:A1 0.000168211
5 *9153:A2 *9152:A1 4.07478e-05
*RES
1 *9417:Q *9152:A1 11.184 
*END

*D_NET *632 0.000479944
*CONN
*I *9156:A1 I *D gf180mcu_fd_sc_mcu7t5v0__nand2_1
*I *9418:Q O *D gf180mcu_fd_sc_mcu7t5v0__dffq_1
*CAP
1 *9156:A1 0.000234356
2 *9418:Q 0.000234356
3 *9148:A2 *9156:A1 0
4 *9156:A2 *9156:A1 0
5 *9157:A2 *9156:A1 1.12327e-05
*RES
1 *9418:Q *9156:A1 10.872 
*END

*D_NET *633 0.000485765
*CONN
*I *9160:A1 I *D gf180mcu_fd_sc_mcu7t5v0__nand2_1
*I *9419:Q O *D gf180mcu_fd_sc_mcu7t5v0__dffq_1
*CAP
1 *9160:A1 0.000223771
2 *9419:Q 0.000223771
3 *9160:A2 *9160:A1 3.82231e-05
4 *9161:A2 *9160:A1 0
*RES
1 *9419:Q *9160:A1 10.456 
*END

*D_NET *634 0.00204163
*CONN
*I *9164:A1 I *D gf180mcu_fd_sc_mcu7t5v0__nand2_1
*I *9420:Q O *D gf180mcu_fd_sc_mcu7t5v0__dffq_1
*CAP
1 *9164:A1 0.000299677
2 *9420:Q 0.000299677
3 *9164:A2 *9164:A1 0.00017298
4 *9165:A2 *9164:A1 1.71326e-05
5 *425:32 *9164:A1 0.000492457
6 *442:10 *9164:A1 0.000759705
*RES
1 *9420:Q *9164:A1 21.536 
*END

*D_NET *635 0.00176371
*CONN
*I *9168:A1 I *D gf180mcu_fd_sc_mcu7t5v0__nand2_1
*I *9421:Q O *D gf180mcu_fd_sc_mcu7t5v0__dffq_1
*CAP
1 *9168:A1 0.00027012
2 *9421:Q 0.00027012
3 *379:52 *9168:A1 0.001107
4 *413:28 *9168:A1 0
5 *425:18 *9168:A1 0.000116476
*RES
1 *9421:Q *9168:A1 21.328 
*END

*D_NET *636 0.00106169
*CONN
*I *9172:A1 I *D gf180mcu_fd_sc_mcu7t5v0__nand2_1
*I *9422:Q O *D gf180mcu_fd_sc_mcu7t5v0__dffq_1
*CAP
1 *9172:A1 0.000289042
2 *9422:Q 0.000289042
3 *9172:A2 *9172:A1 0.00048361
4 *9173:A2 *9172:A1 0
5 *379:50 *9172:A1 0
*RES
1 *9422:Q *9172:A1 20.704 
*END

*D_NET *637 0.00116049
*CONN
*I *9176:A1 I *D gf180mcu_fd_sc_mcu7t5v0__nand2_1
*I *9423:Q O *D gf180mcu_fd_sc_mcu7t5v0__dffq_1
*CAP
1 *9176:A1 0.000323731
2 *9423:Q 0.000323731
3 *9177:A2 *9176:A1 0.000497696
4 *413:14 *9176:A1 1.53294e-05
*RES
1 *9423:Q *9176:A1 12.12 
*END

*D_NET *638 0.00252072
*CONN
*I *9181:A1 I *D gf180mcu_fd_sc_mcu7t5v0__nand2_1
*I *9424:Q O *D gf180mcu_fd_sc_mcu7t5v0__dffq_1
*CAP
1 *9181:A1 0.000385322
2 *9424:Q 0.000385322
3 *9181:A2 *9181:A1 0.000147829
4 *221:14 *9181:A1 0.00160224
*RES
1 *9424:Q *9181:A1 13.576 
*END

*D_NET *639 0.00211836
*CONN
*I *9185:A1 I *D gf180mcu_fd_sc_mcu7t5v0__nand2_1
*I *9425:Q O *D gf180mcu_fd_sc_mcu7t5v0__dffq_1
*CAP
1 *9185:A1 0.000169057
2 *9425:Q 0.000169057
3 *9185:A1 *9633:D[2] 0.000392875
4 *9347:A2 *9185:A1 0.000833343
5 *9352:A1 *9185:A1 0.000180675
6 *207:12 *9185:A1 0.000271764
7 *448:49 *9185:A1 0.000101592
*RES
1 *9425:Q *9185:A1 21.536 
*END

*D_NET *640 0.000653765
*CONN
*I *9189:A1 I *D gf180mcu_fd_sc_mcu7t5v0__nand2_1
*I *9426:Q O *D gf180mcu_fd_sc_mcu7t5v0__dffq_1
*CAP
1 *9189:A1 0.000150358
2 *9426:Q 0.000150358
3 *9189:A2 *9189:A1 0.000292328
4 *9190:A2 *9189:A1 1.23478e-05
5 *223:12 *9189:A1 4.83728e-05
*RES
1 *9426:Q *9189:A1 19.56 
*END

*D_NET *641 0.000476928
*CONN
*I *9193:A1 I *D gf180mcu_fd_sc_mcu7t5v0__nand2_1
*I *9427:Q O *D gf180mcu_fd_sc_mcu7t5v0__dffq_1
*CAP
1 *9193:A1 0.000183659
2 *9427:Q 0.000183659
3 *9189:A2 *9193:A1 0.000109609
*RES
1 *9427:Q *9193:A1 10.664 
*END

*D_NET *642 0.00106756
*CONN
*I *9197:A1 I *D gf180mcu_fd_sc_mcu7t5v0__nand2_1
*I *9428:Q O *D gf180mcu_fd_sc_mcu7t5v0__dffq_1
*CAP
1 *9197:A1 0.000533781
2 *9428:Q 0.000533781
3 *225:10 *9197:A1 0
*RES
1 *9428:Q *9197:A1 13.056 
*END

*D_NET *643 0.00289307
*CONN
*I *9201:A1 I *D gf180mcu_fd_sc_mcu7t5v0__nand2_1
*I *9429:Q O *D gf180mcu_fd_sc_mcu7t5v0__dffq_1
*CAP
1 *9201:A1 0.000269051
2 *9429:Q 0.000269051
3 *9199:I0 *9201:A1 0.00120227
4 *415:23 *9201:A1 0.0011527
*RES
1 *9429:Q *9201:A1 22.368 
*END

*D_NET *644 0.00239522
*CONN
*I *9205:A1 I *D gf180mcu_fd_sc_mcu7t5v0__nand2_1
*I *9430:Q O *D gf180mcu_fd_sc_mcu7t5v0__dffq_1
*CAP
1 *9205:A1 0.000363988
2 *9430:Q 0.000363988
3 *9199:I0 *9205:A1 0
4 *9202:A2 *9205:A1 0
5 *9207:I0 *9205:A1 5.47866e-05
6 *9209:A2 *9205:A1 3.4596e-05
7 *9429:CLK *9205:A1 8.29965e-06
8 *9430:D *9205:A1 0.000835845
9 *226:12 *9205:A1 0.000560736
10 *429:68 *9205:A1 0.00017298
*RES
1 *9430:Q *9205:A1 22.368 
*END

*D_NET *645 0.00200638
*CONN
*I *9209:A1 I *D gf180mcu_fd_sc_mcu7t5v0__nand2_1
*I *9431:Q O *D gf180mcu_fd_sc_mcu7t5v0__dffq_1
*CAP
1 *9209:A1 0.000402055
2 *9431:Q 0.000402055
3 *9211:I0 *9209:A1 0.000417612
4 *9431:D *9209:A1 0.000784655
5 *9431:CLK *9209:A1 0
6 *228:8 *9209:A1 0
*RES
1 *9431:Q *9209:A1 22.368 
*END

*D_NET *646 0.00182172
*CONN
*I *9315:A1 I *D gf180mcu_fd_sc_mcu7t5v0__nand2_1
*I *9400:Q O *D gf180mcu_fd_sc_mcu7t5v0__dffq_1
*CAP
1 *9315:A1 0.000350035
2 *9400:Q 0.000350035
3 *9315:A1 *9632:D[3] 1.93198e-05
4 *9315:A2 *9315:A1 0.00027784
5 *9316:A2 *9315:A1 0.000158277
6 *9324:A1 *9315:A1 5.94737e-06
7 *197:10 *9315:A1 0.000660271
*RES
1 *9400:Q *9315:A1 22.472 
*END

*D_NET *647 0.00102268
*CONN
*I *9319:A1 I *D gf180mcu_fd_sc_mcu7t5v0__nand2_1
*I *9401:Q O *D gf180mcu_fd_sc_mcu7t5v0__dffq_1
*CAP
1 *9319:A1 0.000330392
2 *9401:Q 0.000330392
3 *9317:I0 *9319:A1 2.21751e-05
4 *198:12 *9319:A1 0.000289333
5 *451:16 *9319:A1 5.03834e-05
*RES
1 *9401:Q *9319:A1 21.12 
*END

*D_NET *648 0.0247509
*CONN
*I *9179:A1 I *D gf180mcu_fd_sc_mcu7t5v0__and2_1
*I *9146:A1 I *D gf180mcu_fd_sc_mcu7t5v0__and2_1
*I *9141:A1 I *D gf180mcu_fd_sc_mcu7t5v0__and2_1
*I *9267:A1 I *D gf180mcu_fd_sc_mcu7t5v0__nor3_2
*I *9268:S I *D gf180mcu_fd_sc_mcu7t5v0__mux2_2
*I *9231:A2 I *D gf180mcu_fd_sc_mcu7t5v0__nor2_1
*I *9313:A1 I *D gf180mcu_fd_sc_mcu7t5v0__and2_1
*I *9449:Q O *D gf180mcu_fd_sc_mcu7t5v0__dffrnq_1
*CAP
1 *9179:A1 0.000100736
2 *9146:A1 0.00133645
3 *9141:A1 0.000452579
4 *9267:A1 0
5 *9268:S 0
6 *9231:A2 0.000841726
7 *9313:A1 0.000183959
8 *9449:Q 0
9 *648:89 0.00281404
10 *648:34 0.00190933
11 *648:14 0.00146203
12 *648:10 0.000829431
13 *648:8 0.000866277
14 *648:4 0.0015395
15 *9141:A1 *9375:I0 5.3584e-05
16 *9146:A1 *9146:A2 0.000935884
17 *9146:A1 *652:10 0.000438114
18 *648:10 *9375:I0 6.57935e-06
19 *648:89 *9377:I0 2.73715e-06
20 *9237:A1 *648:34 0.000119143
21 *9237:A2 *648:34 0
22 *9245:B *9231:A2 0.000428493
23 *9257:B1 *9231:A2 0.000428493
24 *9266:A2 *648:14 0
25 *9267:A2 *648:14 1.26638e-05
26 *9267:A3 *648:34 0
27 *9268:I0 *648:34 0.000237629
28 *9301:A2 *648:89 0.000157777
29 *9374:I1 *9231:A2 0.000428005
30 *9377:S *648:89 0
31 *9397:CLK *648:14 0
32 *9449:RN *9141:A1 0
33 *9449:RN *648:8 0.000654535
34 *9449:RN *648:10 0
35 *9451:D *648:34 0.000121346
36 *9453:I *9231:A2 0.000729609
37 *9612:I *9231:A2 8.99353e-05
38 *3:50 *9146:A1 0
39 *128:26 *9231:A2 0.00011543
40 *191:10 *9146:A1 0.00160224
41 *192:8 *648:89 0.000366066
42 *304:18 *9231:A2 0.000339029
43 *327:13 *648:8 3.10787e-05
44 *327:13 *648:89 0
45 *380:207 *648:34 0.000600115
46 *380:220 *648:34 0.000182866
47 *380:229 *648:34 0.00112993
48 *399:18 *9231:A2 0.000122054
49 *407:57 *9141:A1 1.53294e-05
50 *407:57 *648:10 0
51 *407:57 *648:14 0
52 *438:56 *9231:A2 0.000139238
53 *438:56 *648:34 0.00128539
54 *438:72 *648:34 0.000484723
55 *449:59 *648:34 0
56 *460:160 *9141:A1 0.0010392
57 *460:160 *648:8 0
58 *460:160 *648:89 0.000117664
*RES
1 *9449:Q *648:4 4.5 
2 *648:4 *648:8 6.476 
3 *648:8 *648:10 1.768 
4 *648:10 *648:14 7.308 
5 *648:14 *648:34 16.876 
6 *648:34 *9313:A1 10.144 
7 *648:34 *9231:A2 18.048 
8 *648:14 *9268:S 4.5 
9 *648:10 *9267:A1 9 
10 *648:8 *9141:A1 13.784 
11 *648:4 *648:89 24.732 
12 *648:89 *9146:A1 23.768 
13 *648:89 *9179:A1 9.728 
*END

*D_NET *649 0.000522105
*CONN
*I *9449:D I *D gf180mcu_fd_sc_mcu7t5v0__dffrnq_1
*I *9268:Z O *D gf180mcu_fd_sc_mcu7t5v0__mux2_2
*CAP
1 *9449:D 0.00020796
2 *9268:Z 0.00020796
3 *9128:I *9449:D 0.000106185
*RES
1 *9268:Z *9449:D 10.664 
*END

*D_NET *650 0.00252516
*CONN
*I *9374:I0 I *D gf180mcu_fd_sc_mcu7t5v0__mux2_2
*I *9313:A2 I *D gf180mcu_fd_sc_mcu7t5v0__and2_1
*I *9396:Q O *D gf180mcu_fd_sc_mcu7t5v0__dffq_1
*CAP
1 *9374:I0 0
2 *9313:A2 0.000116431
3 *9396:Q 0.000364914
4 *650:10 0.000481345
5 *9374:S *650:10 0.00130521
6 *3:50 *9313:A2 6.69436e-05
7 *3:50 *650:10 7.51445e-05
8 *332:14 *650:10 0
9 *514:69 *9313:A2 0.000115166
*RES
1 *9396:Q *650:10 9.18 
2 *650:10 *9313:A2 5.852 
3 *650:10 *9374:I0 4.5 
*END

*D_NET *651 0.00442317
*CONN
*I *9375:I0 I *D gf180mcu_fd_sc_mcu7t5v0__mux2_2
*I *9141:A2 I *D gf180mcu_fd_sc_mcu7t5v0__and2_1
*I *9397:Q O *D gf180mcu_fd_sc_mcu7t5v0__dffq_1
*CAP
1 *9375:I0 0.000356755
2 *9141:A2 0.000122798
3 *9397:Q 0.000134113
4 *651:6 0.000613667
5 *9141:A1 *9375:I0 5.3584e-05
6 *9638:I *9141:A2 0.000276007
7 *9638:I *651:6 0.00168374
8 *281:16 *9141:A2 4.77699e-05
9 *407:57 *9375:I0 9.03002e-05
10 *439:18 *651:6 0.000185779
11 *460:160 *9141:A2 0.00019377
12 *460:160 *651:6 0.000658302
13 *648:10 *9375:I0 6.57935e-06
*RES
1 *9397:Q *651:6 8.972 
2 *651:6 *9141:A2 6.164 
3 *651:6 *9375:I0 16.308 
*END

*D_NET *652 0.00560601
*CONN
*I *9376:I0 I *D gf180mcu_fd_sc_mcu7t5v0__mux2_2
*I *9146:A2 I *D gf180mcu_fd_sc_mcu7t5v0__and2_1
*I *9398:Q O *D gf180mcu_fd_sc_mcu7t5v0__dffq_1
*CAP
1 *9376:I0 0.000844497
2 *9146:A2 0.000581964
3 *9398:Q 0.000555269
4 *652:10 0.00198173
5 *9146:A1 *9146:A2 0.000935884
6 *9146:A1 *652:10 0.000438114
7 *9376:I1 *9376:I0 0
8 *9376:S *9376:I0 7.87395e-06
9 *9398:D *9376:I0 0
10 *3:50 *9146:A2 0.000225567
11 *191:10 *9146:A2 3.511e-05
12 *191:10 *9376:I0 0
13 *438:74 *652:10 0
*RES
1 *9398:Q *652:10 13.992 
2 *652:10 *9146:A2 15.864 
3 *652:10 *9376:I0 14.72 
*END

*D_NET *653 0.00548226
*CONN
*I *9179:A2 I *D gf180mcu_fd_sc_mcu7t5v0__and2_1
*I *9377:I0 I *D gf180mcu_fd_sc_mcu7t5v0__mux2_2
*I *9399:Q O *D gf180mcu_fd_sc_mcu7t5v0__dffq_1
*CAP
1 *9179:A2 0.000124718
2 *9377:I0 0.000645674
3 *9399:Q 0
4 *653:4 0.000770392
5 *9301:A1 *9377:I0 0.000113027
6 *9301:A2 *9377:I0 2.24654e-05
7 *9638:I *9179:A2 0.00106072
8 *9638:I *9377:I0 0.00137749
9 *192:8 *9179:A2 0.000406727
10 *192:8 *9377:I0 0.000458125
11 *375:69 *9377:I0 1.53331e-05
12 *439:18 *9179:A2 0.000120869
13 *439:18 *9377:I0 0.000149967
14 *460:164 *9377:I0 0.000214016
15 *648:89 *9377:I0 2.73715e-06
*RES
1 *9399:Q *653:4 4.5 
2 *653:4 *9377:I0 21.3 
3 *653:4 *9179:A2 7.62 
*END

*D_NET *654 0.00609561
*CONN
*I *9632:D[0] I *D gf180mcu_fd_ip_sram__sram256x8m8wm1
*I *9273:Z O *D gf180mcu_fd_sc_mcu7t5v0__and2_1
*CAP
1 *9632:D[0] 0.00304781
2 *9273:Z 0.00304781
3 *9632:WEN[0] *9632:D[0] 0
*RES
1 *9273:Z *9632:D[0] 37.576 
*END

*D_NET *655 0.00877889
*CONN
*I *9633:D[2] I *D gf180mcu_fd_ip_sram__sram256x8m8wm1
*I *9285:Z O *D gf180mcu_fd_sc_mcu7t5v0__and2_1
*CAP
1 *9633:D[2] 0.00214024
2 *9285:Z 0.00214024
3 *9633:D[2] *9633:D[1] 0
4 *9185:A1 *9633:D[2] 0.000392875
5 *9187:I0 *9633:D[2] 0.000370787
6 *9187:I1 *9633:D[2] 2.95019e-05
7 *9284:A1 *9633:D[2] 3.22532e-06
8 *9285:A2 *9633:D[2] 4.67771e-06
9 *9350:A1 *9633:D[2] 0.000214117
10 *9352:A1 *9633:D[2] 0.000145624
11 *9353:S *9633:D[2] 0.000207191
12 *9354:A1 *9633:D[2] 0
13 *9354:A3 *9633:D[2] 0.000242796
14 *9357:I0 *9633:D[2] 5.40376e-05
15 *9471:I *9633:D[2] 3.41079e-05
16 *9633:WEN[2] *9633:D[2] 5.00817e-05
17 *207:12 *9633:D[2] 0.000103351
18 *222:6 *9633:D[2] 2.89608e-05
19 *258:53 *9633:D[2] 0.000112366
20 *329:26 *9633:D[2] 0.00131056
21 *329:37 *9633:D[2] 0.000585278
22 *380:25 *9633:D[2] 1.78512e-05
23 *418:6 *9633:D[2] 0.000490284
24 *440:10 *9633:D[2] 2.67229e-05
25 *440:21 *9633:D[2] 2.3005e-05
26 *455:18 *9633:D[2] 5.10196e-05
*RES
1 *9285:Z *9633:D[2] 34.144 
*END

*D_NET *656 0.00443604
*CONN
*I *9633:D[3] I *D gf180mcu_fd_ip_sram__sram256x8m8wm1
*I *9286:Z O *D gf180mcu_fd_sc_mcu7t5v0__and2_1
*CAP
1 *9633:D[3] 0.00216279
2 *9286:Z 0.00216279
3 *9633:WEN[3] *9633:D[3] 0.000110462
*RES
1 *9286:Z *9633:D[3] 19.216 
*END

*D_NET *657 0.00433939
*CONN
*I *9633:D[4] I *D gf180mcu_fd_ip_sram__sram256x8m8wm1
*I *9287:Z O *D gf180mcu_fd_sc_mcu7t5v0__and2_1
*CAP
1 *9633:D[4] 0.00213334
2 *9287:Z 0.00213334
3 *9143:A1 *9633:D[4] 7.27179e-05
*RES
1 *9287:Z *9633:D[4] 19.424 
*END

*D_NET *658 0.00480488
*CONN
*I *9633:D[5] I *D gf180mcu_fd_ip_sram__sram256x8m8wm1
*I *9288:Z O *D gf180mcu_fd_sc_mcu7t5v0__and2_1
*CAP
1 *9633:D[5] 0.00180653
2 *9288:Z 0.00180653
3 *9633:D[5] *9633:D[6] 0.00035327
4 *9366:A1 *9633:D[5] 0.000810693
5 *9633:WEN[5] *9633:D[5] 2.78537e-05
*RES
1 *9288:Z *9633:D[5] 21.608 
*END

*D_NET *659 0.00487088
*CONN
*I *9633:D[6] I *D gf180mcu_fd_ip_sram__sram256x8m8wm1
*I *9289:Z O *D gf180mcu_fd_sc_mcu7t5v0__and2_1
*CAP
1 *9633:D[6] 0.00203778
2 *9289:Z 0.00203778
3 *9370:A1 *9633:D[6] 0.000422776
4 *9633:D[5] *9633:D[6] 0.00035327
5 *9633:WEN[6] *9633:D[6] 1.92742e-05
*RES
1 *9289:Z *9633:D[6] 29.984 
*END

*D_NET *660 0.00650558
*CONN
*I *9633:D[7] I *D gf180mcu_fd_ip_sram__sram256x8m8wm1
*I *9290:Z O *D gf180mcu_fd_sc_mcu7t5v0__and2_1
*CAP
1 *9633:D[7] 0.00324817
2 *9290:Z 0.00324817
3 *9633:WEN[7] *9633:D[7] 9.23812e-06
*RES
1 *9290:Z *9633:D[7] 39.136 
*END

*D_NET *661 0.00222561
*CONN
*I *9634:D[0] I *D gf180mcu_fd_ip_sram__sram256x8m8wm1
*I *9293:Z O *D gf180mcu_fd_sc_mcu7t5v0__and2_1
*CAP
1 *9634:D[0] 0.000764381
2 *9293:Z 0.000764381
3 *9295:A1 *9634:D[0] 0.000696844
4 *9634:WEN[0] *9634:D[0] 0
*RES
1 *9293:Z *9634:D[0] 22.808 
*END

*D_NET *662 0.0091349
*CONN
*I *9634:D[1] I *D gf180mcu_fd_ip_sram__sram256x8m8wm1
*I *9294:Z O *D gf180mcu_fd_sc_mcu7t5v0__and2_1
*CAP
1 *9634:D[1] 0.00136161
2 *9294:Z 0.00136161
3 *9147:A1 *9634:D[1] 0.000108819
4 *9147:A2 *9634:D[1] 0.000176597
5 *9151:A1 *9634:D[1] 0.00018919
6 *9634:WEN[1] *9634:D[1] 2.78537e-05
7 *330:46 *9634:D[1] 0.00219572
8 *330:60 *9634:D[1] 0.00227406
9 *330:64 *9634:D[1] 0.000438808
10 *497:12 *9634:D[1] 0.000123748
11 *498:12 *9634:D[1] 0.000876884
*RES
1 *9294:Z *9634:D[1] 38.824 
*END

*D_NET *663 0.00712788
*CONN
*I *9634:D[2] I *D gf180mcu_fd_ip_sram__sram256x8m8wm1
*I *9295:Z O *D gf180mcu_fd_sc_mcu7t5v0__and2_1
*CAP
1 *9634:D[2] 0.00255711
2 *9295:Z 0.00255711
3 *9147:A1 *9634:D[2] 0
4 *9151:A1 *9634:D[2] 0.00135756
5 *9155:A1 *9634:D[2] 0
6 *9295:A1 *9634:D[2] 9.92582e-05
7 *9634:WEN[2] *9634:D[2] 4.07263e-05
8 *330:60 *9634:D[2] 4.67771e-06
9 *498:12 *9634:D[2] 0.000511447
*RES
1 *9295:Z *9634:D[2] 39.344 
*END

*D_NET *664 0.016068
*CONN
*I *9634:D[3] I *D gf180mcu_fd_ip_sram__sram256x8m8wm1
*I *9296:Z O *D gf180mcu_fd_sc_mcu7t5v0__and2_1
*CAP
1 *9634:D[3] 0.00127323
2 *9296:Z 0.00127323
3 *9634:WEN[3] *9634:D[3] 2.78537e-05
4 *330:46 *9634:D[3] 0.00299686
5 *330:50 *9634:D[3] 4.67771e-06
6 *498:12 *9634:D[3] 0.0104922
*RES
1 *9296:Z *9634:D[3] 45.584 
*END

*D_NET *665 0.00409276
*CONN
*I *9632:D[1] I *D gf180mcu_fd_ip_sram__sram256x8m8wm1
*I *9274:Z O *D gf180mcu_fd_sc_mcu7t5v0__and2_1
*CAP
1 *9632:D[1] 0.00195745
2 *9274:Z 0.00195745
3 *9632:D[1] *9632:D[2] 0
4 *9318:A1 *9632:D[1] 0.000137135
5 *9632:WEN[1] *9632:D[1] 4.07263e-05
*RES
1 *9274:Z *9632:D[1] 19.216 
*END

*D_NET *666 0.0105015
*CONN
*I *9634:D[4] I *D gf180mcu_fd_ip_sram__sram256x8m8wm1
*I *9297:Z O *D gf180mcu_fd_sc_mcu7t5v0__and2_1
*CAP
1 *9634:D[4] 0.00178129
2 *9297:Z 0.00178129
3 *9167:A1 *9634:D[4] 0.00419589
4 *9169:A1 *9634:D[4] 0.00267493
5 *9634:WEN[4] *9634:D[4] 9.23812e-06
6 *261:35 *9634:D[4] 5.88619e-05
*RES
1 *9297:Z *9634:D[4] 36.744 
*END

*D_NET *667 0.00252349
*CONN
*I *9634:D[5] I *D gf180mcu_fd_ip_sram__sram256x8m8wm1
*I *9298:Z O *D gf180mcu_fd_sc_mcu7t5v0__and2_1
*CAP
1 *9634:D[5] 0.000711686
2 *9298:Z 0.000711686
3 *9167:A1 *9634:D[5] 0.00107227
4 *9634:WEN[5] *9634:D[5] 2.78537e-05
*RES
1 *9298:Z *9634:D[5] 20.416 
*END

*D_NET *668 0.0016142
*CONN
*I *9634:D[6] I *D gf180mcu_fd_ip_sram__sram256x8m8wm1
*I *9299:Z O *D gf180mcu_fd_sc_mcu7t5v0__and2_1
*CAP
1 *9634:D[6] 0.000601994
2 *9299:Z 0.000601994
3 *9171:A1 *9634:D[6] 0.000382358
4 *9173:A1 *9634:D[6] 0
5 *9634:WEN[6] *9634:D[6] 2.78537e-05
*RES
1 *9299:Z *9634:D[6] 10.48 
*END

*D_NET *669 0.00638778
*CONN
*I *9634:D[7] I *D gf180mcu_fd_ip_sram__sram256x8m8wm1
*I *9300:Z O *D gf180mcu_fd_sc_mcu7t5v0__and2_1
*CAP
1 *9634:D[7] 0.00265898
2 *9300:Z 0.00265898
3 *9300:A2 *9634:D[7] 0.00106981
*RES
1 *9300:Z *9634:D[7] 36.744 
*END

*D_NET *670 0.0052407
*CONN
*I *9635:D[0] I *D gf180mcu_fd_ip_sram__sram256x8m8wm1
*I *9303:Z O *D gf180mcu_fd_sc_mcu7t5v0__and2_1
*CAP
1 *9635:D[0] 0.00214473
2 *9303:Z 0.00214473
3 *9303:A2 *9635:D[0] 0.000941999
4 *9635:WEN[0] *9635:D[0] 9.23812e-06
*RES
1 *9303:Z *9635:D[0] 32.48 
*END

*D_NET *671 0.00198088
*CONN
*I *9635:D[1] I *D gf180mcu_fd_ip_sram__sram256x8m8wm1
*I *9304:Z O *D gf180mcu_fd_sc_mcu7t5v0__and2_1
*CAP
1 *9635:D[1] 0.000978289
2 *9304:Z 0.000978289
3 *9635:WEN[1] *9635:D[1] 1.92742e-05
4 *578:11 *9635:D[1] 5.02642e-06
*RES
1 *9304:Z *9635:D[1] 10.792 
*END

*D_NET *672 0.00140378
*CONN
*I *9635:D[2] I *D gf180mcu_fd_ip_sram__sram256x8m8wm1
*I *9305:Z O *D gf180mcu_fd_sc_mcu7t5v0__and2_1
*CAP
1 *9635:D[2] 0.000681526
2 *9305:Z 0.000681526
3 *9188:A1 *9635:D[2] 0
4 *9635:WEN[2] *9635:D[2] 4.07263e-05
*RES
1 *9305:Z *9635:D[2] 9.96 
*END

*D_NET *673 0.00500709
*CONN
*I *9635:D[3] I *D gf180mcu_fd_ip_sram__sram256x8m8wm1
*I *9306:Z O *D gf180mcu_fd_sc_mcu7t5v0__and2_1
*CAP
1 *9635:D[3] 0.00248009
2 *9306:Z 0.00248009
3 *9306:A1 *9635:D[3] 6.18411e-06
4 *9635:WEN[3] *9635:D[3] 4.07263e-05
*RES
1 *9306:Z *9635:D[3] 34.352 
*END

*D_NET *674 0.014182
*CONN
*I *9635:D[4] I *D gf180mcu_fd_ip_sram__sram256x8m8wm1
*I *9307:Z O *D gf180mcu_fd_sc_mcu7t5v0__and2_1
*CAP
1 *9635:D[4] 0.000889742
2 *9307:Z 0.000889742
3 *9635:D[4] *9635:D[5] 0.000292328
4 *9198:A1 *9635:D[4] 0.0013693
5 *9635:WEN[4] *9635:D[4] 9.23812e-06
6 *331:52 *9635:D[4] 0.00798942
7 *505:12 *9635:D[4] 0.00274218
*RES
1 *9307:Z *9635:D[4] 39.448 
*END

*D_NET *675 0.0121525
*CONN
*I *9635:D[5] I *D gf180mcu_fd_ip_sram__sram256x8m8wm1
*I *9308:Z O *D gf180mcu_fd_sc_mcu7t5v0__and2_1
*CAP
1 *9635:D[5] 0.00102165
2 *9308:Z 0.00102165
3 *9200:A1 *9635:D[5] 0
4 *9635:D[4] *9635:D[5] 0.000292328
5 *9635:WEN[5] *9635:D[5] 4.07263e-05
6 *331:52 *9635:D[5] 0.000100557
7 *331:67 *9635:D[5] 0.00274404
8 *505:12 *9635:D[5] 0.00693156
*RES
1 *9308:Z *9635:D[5] 36.744 
*END

*D_NET *676 0.0040388
*CONN
*I *9632:D[2] I *D gf180mcu_fd_ip_sram__sram256x8m8wm1
*I *9275:Z O *D gf180mcu_fd_sc_mcu7t5v0__and2_1
*CAP
1 *9632:D[2] 0.00194084
2 *9275:Z 0.00194084
3 *9322:A1 *9632:D[2] 0.000129265
4 *9632:D[1] *9632:D[2] 0
5 *9632:WEN[2] *9632:D[2] 2.78537e-05
*RES
1 *9275:Z *9632:D[2] 18.904 
*END

*D_NET *677 0.0117536
*CONN
*I *9635:D[6] I *D gf180mcu_fd_ip_sram__sram256x8m8wm1
*I *9309:Z O *D gf180mcu_fd_sc_mcu7t5v0__and2_1
*CAP
1 *9635:D[6] 0.0018679
2 *9309:Z 0.0018679
3 *9204:A1 *9635:D[6] 0.000184081
4 *9208:A1 *9635:D[6] 6.92457e-06
5 *9307:A1 *9635:D[6] 0.000747715
6 *9309:A2 *9635:D[6] 1.03283e-05
7 *9635:WEN[6] *9635:D[6] 1.92742e-05
8 *331:80 *9635:D[6] 0.000411027
9 *505:12 *9635:D[6] 0.00663846
10 *507:10 *9635:D[6] 0
*RES
1 *9309:Z *9635:D[6] 36.224 
*END

*D_NET *678 0.00263391
*CONN
*I *9635:D[7] I *D gf180mcu_fd_ip_sram__sram256x8m8wm1
*I *9310:Z O *D gf180mcu_fd_sc_mcu7t5v0__and2_1
*CAP
1 *9635:D[7] 0.00131695
2 *9310:Z 0.00131695
3 *9635:WEN[7] *9635:D[7] 0
*RES
1 *9310:Z *9635:D[7] 24.576 
*END

*D_NET *679 0.00482654
*CONN
*I *9632:D[3] I *D gf180mcu_fd_ip_sram__sram256x8m8wm1
*I *9276:Z O *D gf180mcu_fd_sc_mcu7t5v0__and2_1
*CAP
1 *9632:D[3] 0.0022349
2 *9276:Z 0.0022349
3 *9315:A1 *9632:D[3] 1.93198e-05
4 *9315:A2 *9632:D[3] 6.51159e-05
5 *9632:WEN[3] *9632:D[3] 6.31916e-05
6 *451:16 *9632:D[3] 0.000209115
*RES
1 *9276:Z *9632:D[3] 20.36 
*END

*D_NET *680 0.00470696
*CONN
*I *9632:D[4] I *D gf180mcu_fd_ip_sram__sram256x8m8wm1
*I *9277:Z O *D gf180mcu_fd_sc_mcu7t5v0__and2_1
*CAP
1 *9632:D[4] 0.00234886
2 *9277:Z 0.00234886
3 *9632:WEN[4] *9632:D[4] 9.23812e-06
*RES
1 *9277:Z *9632:D[4] 19.528 
*END

*D_NET *681 0.0053845
*CONN
*I *9632:D[5] I *D gf180mcu_fd_ip_sram__sram256x8m8wm1
*I *9278:Z O *D gf180mcu_fd_sc_mcu7t5v0__and2_1
*CAP
1 *9632:D[5] 0.00204404
2 *9278:Z 0.00204404
3 *9331:A1 *9632:D[5] 0
4 *9331:A2 *9632:D[5] 5.36452e-06
5 *9334:A1 *9632:D[5] 0.000348082
6 *9336:A1 *9632:D[5] 0.00021052
7 *9632:WEN[5] *9632:D[5] 2.78537e-05
8 *189:34 *9632:D[5] 0
9 *201:10 *9632:D[5] 0.000117959
10 *332:35 *9632:D[5] 0
11 *372:28 *9632:D[5] 0.000507249
12 *375:74 *9632:D[5] 7.93873e-05
*RES
1 *9278:Z *9632:D[5] 29.256 
*END

*D_NET *682 0.00592071
*CONN
*I *9632:D[6] I *D gf180mcu_fd_ip_sram__sram256x8m8wm1
*I *9279:Z O *D gf180mcu_fd_sc_mcu7t5v0__and2_1
*CAP
1 *9632:D[6] 0.00177625
2 *9279:Z 0.00177625
3 *9334:A1 *9632:D[6] 1.36398e-06
4 *9336:A1 *9632:D[6] 0
5 *9338:A1 *9632:D[6] 0.000800285
6 *9338:A3 *9632:D[6] 0.000103788
7 *9339:A1 *9632:D[6] 0.000274978
8 *9339:A2 *9632:D[6] 0.000113027
9 *9340:A1 *9632:D[6] 0
10 *9343:A1 *9632:D[6] 0
11 *9343:A2 *9632:D[6] 9.13819e-06
12 *9404:D *9632:D[6] 4.08451e-05
13 *9632:WEN[6] *9632:D[6] 2.78537e-05
14 *189:34 *9632:D[6] 2.9833e-05
15 *332:35 *9632:D[6] 0.00017298
16 *449:16 *9632:D[6] 0.000794111
*RES
1 *9279:Z *9632:D[6] 19.84 
*END

*D_NET *683 0.0117729
*CONN
*I *9632:D[7] I *D gf180mcu_fd_ip_sram__sram256x8m8wm1
*I *9280:Z O *D gf180mcu_fd_sc_mcu7t5v0__and2_1
*CAP
1 *9632:D[7] 0.00260118
2 *9280:Z 0.00260118
3 *9241:B2 *9632:D[7] 0.000548692
4 *9394:A1 *9632:D[7] 0.00145825
5 *9394:A2 *9632:D[7] 9.41093e-05
6 *9395:B *9632:D[7] 0.000245726
7 *9405:CLK *9632:D[7] 0.000548432
8 *9554:I *9632:D[7] 0.000184925
9 *9632:WEN[7] *9632:D[7] 0
10 *9653:I *9632:D[7] 1.33022e-05
11 *9663:I *9632:D[7] 0.000258655
12 *332:14 *9632:D[7] 0
13 *367:29 *9632:D[7] 0.000394672
14 *371:8 *9632:D[7] 6.50218e-06
15 *372:18 *9632:D[7] 0.000754311
16 *401:20 *9632:D[7] 7.45759e-05
17 *426:12 *9632:D[7] 0.00198834
18 *458:14 *9632:D[7] 0
*RES
1 *9280:Z *9632:D[7] 40.072 
*END

*D_NET *684 0.00744504
*CONN
*I *9633:D[0] I *D gf180mcu_fd_ip_sram__sram256x8m8wm1
*I *9283:Z O *D gf180mcu_fd_sc_mcu7t5v0__and2_1
*CAP
1 *9633:D[0] 0.00157758
2 *9283:Z 0.00157758
3 *9138:A1 *9633:D[0] 0.000120886
4 *9138:A3 *9633:D[0] 3.21686e-06
5 *9253:A2 *9633:D[0] 0.001107
6 *9282:A3 *9633:D[0] 0
7 *9382:I0 *9633:D[0] 0.000277018
8 *9633:WEN[0] *9633:D[0] 0
9 *190:19 *9633:D[0] 0
10 *308:12 *9633:D[0] 0.00249238
11 *399:18 *9633:D[0] 2.50996e-05
12 *594:117 *9633:D[0] 0.000106189
13 *594:119 *9633:D[0] 9.11733e-05
14 *594:129 *9633:D[0] 6.69307e-05
*RES
1 *9283:Z *9633:D[0] 29.048 
*END

*D_NET *685 0.00799592
*CONN
*I *9633:D[1] I *D gf180mcu_fd_ip_sram__sram256x8m8wm1
*I *9284:Z O *D gf180mcu_fd_sc_mcu7t5v0__and2_1
*CAP
1 *9633:D[1] 0.00222274
2 *9284:Z 0.00222274
3 *9186:A2 *9633:D[1] 9.05264e-05
4 *9350:A1 *9633:D[1] 0.000201446
5 *9352:A1 *9633:D[1] 0
6 *9353:I0 *9633:D[1] 0.000115166
7 *9354:A1 *9633:D[1] 0
8 *9355:A1 *9633:D[1] 0.000203739
9 *9356:A1 *9633:D[1] 0
10 *9356:A2 *9633:D[1] 0
11 *9409:D *9633:D[1] 7.02352e-05
12 *9425:CLK *9633:D[1] 0.000550188
13 *9633:D[2] *9633:D[1] 0
14 *9633:WEN[1] *9633:D[1] 5.00817e-05
15 *9664:I *9633:D[1] 0.000152626
16 *222:6 *9633:D[1] 0
17 *381:48 *9633:D[1] 0.000250674
18 *448:49 *9633:D[1] 0.00040353
19 *455:18 *9633:D[1] 0.00129015
20 *466:14 *9633:D[1] 0.000172079
*RES
1 *9284:Z *9633:D[1] 33.416 
*END

*D_NET *686 0.0802895
*CONN
*I *9633:CEN I *D gf180mcu_fd_ip_sram__sram256x8m8wm1
*I *9635:CEN I *D gf180mcu_fd_ip_sram__sram256x8m8wm1
*I *9547:I I *D gf180mcu_fd_sc_mcu7t5v0__buf_8
*I *9265:ZN O *D gf180mcu_fd_sc_mcu7t5v0__nand3_4
*CAP
1 *9633:CEN 6.98251e-05
2 *9635:CEN 5.45489e-05
3 *9547:I 2.7295e-05
4 *9265:ZN 0.00025809
5 *686:33 0.0162841
6 *686:31 0.0162296
7 *686:29 0.00265038
8 *686:21 0.00618202
9 *686:10 0.00388685
10 *9265:A1 *686:10 0.000289314
11 *9375:I1 *9547:I 0.000341551
12 *190:10 *686:21 1.3881e-05
13 *190:23 *686:21 0.0073896
14 *190:33 *686:21 0.000358225
15 *190:45 *686:21 0.00775647
16 *190:57 *686:21 0.00127964
17 *190:57 *686:29 0.00213205
18 *190:59 *686:29 0.0125064
19 *281:16 *9547:I 0.00029432
20 *399:18 *686:21 0
21 *448:61 *686:21 0.00154167
22 *460:160 *686:10 0.000272965
23 *512:94 *686:10 0.000470674
*RES
1 *9265:ZN *686:10 11.912 
2 *686:10 *9547:I 9.936 
3 *686:10 *686:21 56.264 
4 *686:21 *686:29 43.056 
5 *686:29 *686:31 4.5 
6 *686:31 *686:33 149.032 
7 *686:33 *9635:CEN 9.468 
8 *686:29 *9633:CEN 4.968 
*END

*D_NET *687 0.0502106
*CONN
*I *9546:I I *D gf180mcu_fd_sc_mcu7t5v0__buf_12
*I *9635:GWEN I *D gf180mcu_fd_ip_sram__sram256x8m8wm1
*I *9633:GWEN I *D gf180mcu_fd_ip_sram__sram256x8m8wm1
*I *9312:ZN O *D gf180mcu_fd_sc_mcu7t5v0__nand4_4
*CAP
1 *9546:I 0
2 *9635:GWEN 0
3 *9633:GWEN 0.00010084
4 *9312:ZN 0.000150952
5 *687:35 0.0153337
6 *687:33 0.0160005
7 *687:20 0.000767676
8 *687:18 0.00810289
9 *687:8 0.00825384
10 *9375:I1 *687:8 0.0002623
11 *281:16 *687:8 0.000975049
12 *431:24 *687:18 0.000147014
13 *439:18 *687:18 7.01533e-05
14 *460:160 *687:8 4.5618e-05
*RES
1 *9312:ZN *687:8 7.412 
2 *687:8 *687:18 48.26 
3 *687:18 *687:20 4.5 
4 *687:20 *9633:GWEN 9.806 
5 *687:20 *687:33 6.266 
6 *687:33 *687:35 141.024 
7 *687:35 *9635:GWEN 9 
8 *687:8 *9546:I 4.5 
*END
