*SPEF "ieee 1481-1999"
*DESIGN "tlul_sram_if_macro"
*DATE "17:46:20 Saturday June 20, 2026"
*VENDOR "The OpenROAD Project"
*PROGRAM "OpenROAD"
*VERSION "dcf36133a369abc8f3c5e5738cd4d82e4903c0e0"
*DESIGN_FLOW "NAME_SCOPE LOCAL" "PIN_CAP NONE"
*DIVIDER /
*DELIMITER :
*BUS_DELIMITER []
*T_UNIT 1 NS
*C_UNIT 1 PF
*R_UNIT 1 OHM
*L_UNIT 1 HENRY

*NAME_MAP
*3 clk_i
*4 en_ifetch_i[0]
*5 en_ifetch_i[1]
*6 en_ifetch_i[2]
*7 en_ifetch_i[3]
*8 rst_ni
*9 tl_i[0]
*10 tl_i[100]
*11 tl_i[101]
*12 tl_i[102]
*13 tl_i[103]
*14 tl_i[104]
*15 tl_i[105]
*16 tl_i[106]
*17 tl_i[107]
*18 tl_i[108]
*19 tl_i[109]
*20 tl_i[10]
*21 tl_i[110]
*22 tl_i[111]
*23 tl_i[112]
*24 tl_i[113]
*25 tl_i[11]
*26 tl_i[12]
*27 tl_i[13]
*28 tl_i[14]
*29 tl_i[15]
*30 tl_i[16]
*31 tl_i[17]
*32 tl_i[18]
*33 tl_i[19]
*34 tl_i[1]
*35 tl_i[20]
*36 tl_i[21]
*37 tl_i[22]
*38 tl_i[23]
*39 tl_i[24]
*40 tl_i[25]
*41 tl_i[26]
*42 tl_i[27]
*43 tl_i[28]
*44 tl_i[29]
*45 tl_i[2]
*46 tl_i[30]
*47 tl_i[31]
*48 tl_i[32]
*49 tl_i[33]
*50 tl_i[34]
*51 tl_i[35]
*52 tl_i[36]
*53 tl_i[37]
*54 tl_i[38]
*55 tl_i[39]
*56 tl_i[3]
*57 tl_i[40]
*58 tl_i[41]
*59 tl_i[42]
*60 tl_i[43]
*61 tl_i[44]
*62 tl_i[45]
*63 tl_i[46]
*64 tl_i[47]
*65 tl_i[48]
*66 tl_i[49]
*67 tl_i[4]
*68 tl_i[50]
*69 tl_i[51]
*70 tl_i[52]
*71 tl_i[53]
*72 tl_i[54]
*73 tl_i[55]
*74 tl_i[56]
*75 tl_i[57]
*76 tl_i[58]
*77 tl_i[59]
*78 tl_i[5]
*79 tl_i[60]
*80 tl_i[61]
*81 tl_i[62]
*82 tl_i[63]
*83 tl_i[64]
*84 tl_i[65]
*85 tl_i[66]
*86 tl_i[67]
*87 tl_i[68]
*88 tl_i[69]
*89 tl_i[6]
*90 tl_i[70]
*91 tl_i[71]
*92 tl_i[72]
*93 tl_i[73]
*94 tl_i[74]
*95 tl_i[75]
*96 tl_i[76]
*97 tl_i[77]
*98 tl_i[78]
*99 tl_i[79]
*100 tl_i[7]
*101 tl_i[80]
*102 tl_i[81]
*103 tl_i[82]
*104 tl_i[83]
*105 tl_i[84]
*106 tl_i[85]
*107 tl_i[86]
*108 tl_i[87]
*109 tl_i[88]
*110 tl_i[89]
*111 tl_i[8]
*112 tl_i[90]
*113 tl_i[91]
*114 tl_i[92]
*115 tl_i[93]
*116 tl_i[94]
*117 tl_i[95]
*118 tl_i[96]
*119 tl_i[97]
*120 tl_i[98]
*121 tl_i[99]
*122 tl_i[9]
*123 tl_o[0]
*124 net184
*125 net185
*126 net186
*127 net187
*128 net188
*129 net189
*130 tl_o[16]
*131 tl_o[17]
*132 tl_o[18]
*133 tl_o[19]
*134 tl_o[1]
*135 tl_o[20]
*136 tl_o[21]
*137 tl_o[22]
*138 tl_o[23]
*139 tl_o[24]
*140 tl_o[25]
*141 tl_o[26]
*142 tl_o[27]
*143 tl_o[28]
*144 tl_o[29]
*145 net
*146 tl_o[30]
*147 tl_o[31]
*148 tl_o[32]
*149 tl_o[33]
*150 tl_o[34]
*151 tl_o[35]
*152 tl_o[36]
*153 tl_o[37]
*154 tl_o[38]
*155 tl_o[39]
*156 tl_o[3]
*157 tl_o[40]
*158 tl_o[41]
*159 tl_o[42]
*160 tl_o[43]
*161 tl_o[44]
*162 tl_o[45]
*163 tl_o[46]
*164 tl_o[47]
*165 net190
*166 tl_o[49]
*167 net180
*168 tl_o[50]
*169 tl_o[51]
*170 tl_o[52]
*171 tl_o[53]
*172 tl_o[54]
*173 tl_o[55]
*174 tl_o[56]
*175 tl_o[57]
*176 tl_o[58]
*177 net191
*178 tl_o[5]
*179 net192
*180 net193
*181 tl_o[62]
*182 net194
*183 net195
*184 tl_o[65]
*185 net181
*186 tl_o[7]
*187 net182
*188 net183
*189 _000_
*190 _001_
*191 _002_
*192 _003_
*193 _004_
*194 _005_
*195 _006_
*196 _007_
*197 _008_
*198 _009_
*199 _010_
*200 _011_
*201 _012_
*202 _013_
*203 _014_
*204 _015_
*205 _016_
*206 _017_
*207 _018_
*208 _019_
*209 _020_
*210 _021_
*211 _022_
*212 _023_
*213 _024_
*214 _025_
*215 _026_
*216 _027_
*217 _028_
*218 _029_
*219 _030_
*220 _031_
*221 _032_
*222 _033_
*223 _034_
*224 _035_
*225 _036_
*226 _037_
*227 _038_
*228 _039_
*229 _040_
*230 _041_
*231 _042_
*232 _043_
*233 _044_
*234 _045_
*235 _046_
*236 _047_
*237 _048_
*238 _049_
*239 _050_
*240 _051_
*241 _052_
*242 _053_
*243 _054_
*244 _055_
*245 _056_
*246 _057_
*247 _058_
*248 _059_
*249 _060_
*250 _061_
*251 _062_
*252 _063_
*253 _064_
*254 _065_
*255 _066_
*256 _067_
*257 _068_
*258 _069_
*259 _070_
*260 _071_
*261 _072_
*262 _073_
*263 _074_
*264 _075_
*265 _076_
*266 _077_
*267 _078_
*268 _079_
*269 _080_
*270 _081_
*271 _082_
*272 _083_
*273 _084_
*274 _085_
*275 _086_
*276 _087_
*277 _088_
*278 _089_
*279 _090_
*280 _091_
*281 _092_
*282 _093_
*283 _094_
*284 _095_
*285 _096_
*286 _097_
*287 _098_
*288 _099_
*289 _100_
*290 _101_
*291 _102_
*292 _103_
*293 _104_
*294 _105_
*295 _106_
*296 _107_
*297 _108_
*298 _109_
*299 _110_
*300 _111_
*301 _112_
*302 _113_
*303 _114_
*304 _115_
*305 _116_
*306 _117_
*307 _118_
*308 _119_
*309 _120_
*310 _121_
*311 _122_
*312 _123_
*313 _124_
*314 _125_
*315 _126_
*316 _127_
*317 _128_
*318 _129_
*319 _130_
*320 _131_
*321 _132_
*322 _133_
*323 _134_
*324 _135_
*325 _136_
*326 _137_
*327 _138_
*328 _139_
*329 _140_
*330 _141_
*331 _142_
*332 _143_
*333 _144_
*334 _145_
*335 _146_
*336 _147_
*337 _148_
*338 _149_
*339 _150_
*340 _151_
*341 _152_
*342 _153_
*343 _154_
*344 _155_
*345 _156_
*346 _157_
*347 _158_
*348 _159_
*349 _160_
*350 _161_
*351 _162_
*352 _163_
*353 _164_
*354 _165_
*355 _166_
*356 _167_
*357 _168_
*358 _169_
*359 _170_
*360 _171_
*361 _172_
*362 _173_
*363 _174_
*364 _175_
*365 addr\[0\]
*366 addr\[1\]
*367 addr\[2\]
*368 addr\[3\]
*369 addr\[4\]
*370 addr\[5\]
*371 addr\[6\]
*372 addr\[7\]
*373 clk_i_regs
*374 clknet_0_clk_i
*375 clknet_0_clk_i_regs
*376 clknet_1_0__leaf_clk_i
*377 clknet_1_1__leaf_clk_i
*378 clknet_2_0__leaf_clk_i_regs
*379 clknet_2_1__leaf_clk_i_regs
*380 clknet_2_2__leaf_clk_i_regs
*381 clknet_2_3__leaf_clk_i_regs
*382 net1
*383 net10
*384 net100
*385 net101
*386 net102
*387 net103
*388 net104
*389 net105
*390 net106
*391 net107
*392 net108
*393 net109
*394 net11
*395 net110
*396 net111
*397 net112
*398 net113
*399 net114
*400 net115
*401 net116
*402 net117
*403 net118
*404 net119
*405 net12
*406 net120
*407 net121
*408 net122
*409 net123
*410 net124
*411 net125
*412 net126
*413 net127
*414 net128
*415 net129
*416 net13
*417 net130
*418 net131
*419 net132
*420 net133
*421 net134
*422 net135
*423 net136
*424 net137
*425 net138
*426 net139
*427 net14
*428 net140
*429 net141
*430 net142
*431 net143
*432 net144
*433 net145
*434 net146
*435 net147
*436 net148
*437 net149
*438 net15
*439 net150
*440 net151
*441 net152
*442 net153
*443 net154
*444 net155
*445 net156
*446 net157
*447 net158
*448 net159
*449 net16
*450 net160
*451 net161
*452 net162
*453 net163
*454 net164
*455 net165
*456 net166
*457 net167
*458 net168
*459 net169
*460 net17
*461 net170
*462 net171
*463 net172
*464 net173
*465 net174
*466 net175
*467 net176
*468 net177
*469 net178
*470 net179
*471 net18
*472 net19
*473 net2
*474 net20
*475 net21
*476 net22
*477 net23
*478 net24
*479 net25
*480 net26
*481 net27
*482 net28
*483 net29
*484 net3
*485 net30
*486 net31
*487 net32
*488 net33
*489 net34
*490 net35
*491 net36
*492 net37
*493 net38
*494 net39
*495 net4
*496 net40
*497 net41
*498 net42
*499 net43
*500 net44
*501 net45
*502 net46
*503 net47
*504 net48
*505 net49
*506 net5
*507 net50
*508 net51
*509 net52
*510 net53
*511 net54
*512 net55
*513 net56
*514 net57
*515 net58
*516 net59
*517 net6
*518 net60
*519 net61
*520 net62
*521 net63
*522 net64
*523 net65
*524 net66
*525 net67
*526 net68
*527 net69
*528 net7
*529 net70
*530 net71
*531 net72
*532 net73
*533 net74
*534 net75
*535 net76
*536 net77
*537 net78
*538 net79
*539 net8
*540 net80
*541 net81
*542 net82
*543 net83
*544 net84
*545 net85
*546 net86
*547 net87
*548 net88
*549 net89
*550 net9
*551 net90
*552 net91
*553 net92
*554 net93
*555 net94
*556 net95
*557 net96
*558 net97
*559 net98
*560 net99
*561 rdata\[0\]
*562 rdata\[10\]
*563 rdata\[11\]
*564 rdata\[12\]
*565 rdata\[13\]
*566 rdata\[14\]
*567 rdata\[15\]
*568 rdata\[16\]
*569 rdata\[17\]
*570 rdata\[18\]
*571 rdata\[19\]
*572 rdata\[1\]
*573 rdata\[20\]
*574 rdata\[21\]
*575 rdata\[22\]
*576 rdata\[23\]
*577 rdata\[24\]
*578 rdata\[25\]
*579 rdata\[26\]
*580 rdata\[27\]
*581 rdata\[28\]
*582 rdata\[29\]
*583 rdata\[2\]
*584 rdata\[30\]
*585 rdata\[31\]
*586 rdata\[3\]
*587 rdata\[4\]
*588 rdata\[5\]
*589 rdata\[6\]
*590 rdata\[7\]
*591 rdata\[8\]
*592 rdata\[9\]
*593 rvalid
*594 u_adapt\.d_valid
*595 u_adapt\.reqfifo_rvalid
*596 u_adapt\.sramreqfifo_wvalid
*597 u_adapt\.u_reqfifo\.gen_singleton_fifo\.full_d
*598 u_adapt\.u_reqfifo\.gen_singleton_fifo\.rdata_int\[0\]
*599 u_adapt\.u_reqfifo\.gen_singleton_fifo\.rdata_int\[10\]
*600 u_adapt\.u_reqfifo\.gen_singleton_fifo\.rdata_int\[11\]
*601 u_adapt\.u_reqfifo\.gen_singleton_fifo\.rdata_int\[12\]
*602 u_adapt\.u_reqfifo\.gen_singleton_fifo\.rdata_int\[13\]
*603 u_adapt\.u_reqfifo\.gen_singleton_fifo\.rdata_int\[14\]
*604 u_adapt\.u_reqfifo\.gen_singleton_fifo\.rdata_int\[15\]
*605 u_adapt\.u_reqfifo\.gen_singleton_fifo\.rdata_int\[1\]
*606 u_adapt\.u_reqfifo\.gen_singleton_fifo\.rdata_int\[2\]
*607 u_adapt\.u_reqfifo\.gen_singleton_fifo\.rdata_int\[3\]
*608 u_adapt\.u_reqfifo\.gen_singleton_fifo\.rdata_int\[4\]
*609 u_adapt\.u_reqfifo\.gen_singleton_fifo\.rdata_int\[5\]
*610 u_adapt\.u_reqfifo\.gen_singleton_fifo\.rdata_int\[6\]
*611 u_adapt\.u_reqfifo\.gen_singleton_fifo\.rdata_int\[7\]
*612 u_adapt\.u_reqfifo\.gen_singleton_fifo\.rdata_int\[8\]
*613 u_adapt\.u_reqfifo\.gen_singleton_fifo\.rdata_int\[9\]
*614 u_adapt\.u_rspfifo\.depth_o
*615 u_adapt\.u_rspfifo\.gen_singleton_fifo\.full_d
*616 u_adapt\.u_rspfifo\.gen_singleton_fifo\.storage\[10\]
*617 u_adapt\.u_rspfifo\.gen_singleton_fifo\.storage\[11\]
*618 u_adapt\.u_rspfifo\.gen_singleton_fifo\.storage\[12\]
*619 u_adapt\.u_rspfifo\.gen_singleton_fifo\.storage\[13\]
*620 u_adapt\.u_rspfifo\.gen_singleton_fifo\.storage\[14\]
*621 u_adapt\.u_rspfifo\.gen_singleton_fifo\.storage\[15\]
*622 u_adapt\.u_rspfifo\.gen_singleton_fifo\.storage\[16\]
*623 u_adapt\.u_rspfifo\.gen_singleton_fifo\.storage\[17\]
*624 u_adapt\.u_rspfifo\.gen_singleton_fifo\.storage\[18\]
*625 u_adapt\.u_rspfifo\.gen_singleton_fifo\.storage\[19\]
*626 u_adapt\.u_rspfifo\.gen_singleton_fifo\.storage\[20\]
*627 u_adapt\.u_rspfifo\.gen_singleton_fifo\.storage\[21\]
*628 u_adapt\.u_rspfifo\.gen_singleton_fifo\.storage\[22\]
*629 u_adapt\.u_rspfifo\.gen_singleton_fifo\.storage\[23\]
*630 u_adapt\.u_rspfifo\.gen_singleton_fifo\.storage\[24\]
*631 u_adapt\.u_rspfifo\.gen_singleton_fifo\.storage\[25\]
*632 u_adapt\.u_rspfifo\.gen_singleton_fifo\.storage\[26\]
*633 u_adapt\.u_rspfifo\.gen_singleton_fifo\.storage\[27\]
*634 u_adapt\.u_rspfifo\.gen_singleton_fifo\.storage\[28\]
*635 u_adapt\.u_rspfifo\.gen_singleton_fifo\.storage\[29\]
*636 u_adapt\.u_rspfifo\.gen_singleton_fifo\.storage\[30\]
*637 u_adapt\.u_rspfifo\.gen_singleton_fifo\.storage\[31\]
*638 u_adapt\.u_rspfifo\.gen_singleton_fifo\.storage\[32\]
*639 u_adapt\.u_rspfifo\.gen_singleton_fifo\.storage\[33\]
*640 u_adapt\.u_rspfifo\.gen_singleton_fifo\.storage\[34\]
*641 u_adapt\.u_rspfifo\.gen_singleton_fifo\.storage\[35\]
*642 u_adapt\.u_rspfifo\.gen_singleton_fifo\.storage\[36\]
*643 u_adapt\.u_rspfifo\.gen_singleton_fifo\.storage\[37\]
*644 u_adapt\.u_rspfifo\.gen_singleton_fifo\.storage\[38\]
*645 u_adapt\.u_rspfifo\.gen_singleton_fifo\.storage\[39\]
*646 u_adapt\.u_rspfifo\.gen_singleton_fifo\.storage\[8\]
*647 u_adapt\.u_rspfifo\.gen_singleton_fifo\.storage\[9\]
*648 u_adapt\.u_sramreqfifo\.depth_o
*649 u_adapt\.u_sramreqfifo\.gen_singleton_fifo\.full_d
*650 u_adapt\.u_sramreqfifo\.gen_singleton_fifo\.rdata_int\[1\]
*651 u_adapt\.u_sramreqfifo\.gen_singleton_fifo\.rdata_int\[2\]
*652 u_adapt\.u_sramreqfifo\.gen_singleton_fifo\.rdata_int\[3\]
*653 u_adapt\.u_sramreqfifo\.gen_singleton_fifo\.rdata_int\[4\]
*654 u_adapt\.wdata_combined\[0\]
*655 u_adapt\.wdata_combined\[10\]
*656 u_adapt\.wdata_combined\[11\]
*657 u_adapt\.wdata_combined\[12\]
*658 u_adapt\.wdata_combined\[13\]
*659 u_adapt\.wdata_combined\[14\]
*660 u_adapt\.wdata_combined\[15\]
*661 u_adapt\.wdata_combined\[16\]
*662 u_adapt\.wdata_combined\[17\]
*663 u_adapt\.wdata_combined\[18\]
*664 u_adapt\.wdata_combined\[19\]
*665 u_adapt\.wdata_combined\[1\]
*666 u_adapt\.wdata_combined\[20\]
*667 u_adapt\.wdata_combined\[21\]
*668 u_adapt\.wdata_combined\[22\]
*669 u_adapt\.wdata_combined\[23\]
*670 u_adapt\.wdata_combined\[24\]
*671 u_adapt\.wdata_combined\[25\]
*672 u_adapt\.wdata_combined\[26\]
*673 u_adapt\.wdata_combined\[27\]
*674 u_adapt\.wdata_combined\[28\]
*675 u_adapt\.wdata_combined\[29\]
*676 u_adapt\.wdata_combined\[2\]
*677 u_adapt\.wdata_combined\[30\]
*678 u_adapt\.wdata_combined\[31\]
*679 u_adapt\.wdata_combined\[3\]
*680 u_adapt\.wdata_combined\[4\]
*681 u_adapt\.wdata_combined\[5\]
*682 u_adapt\.wdata_combined\[6\]
*683 u_adapt\.wdata_combined\[7\]
*684 u_adapt\.wdata_combined\[8\]
*685 u_adapt\.wdata_combined\[9\]
*686 u_mem\.cen
*687 u_mem\.gwen
*688 FILLER_0_104
*689 FILLER_0_1056
*690 FILLER_0_1058
*691 FILLER_0_1119
*692 FILLER_0_1121
*693 FILLER_0_1154
*694 FILLER_0_1174
*695 FILLER_0_1192
*696 FILLER_0_1226
*697 FILLER_0_1260
*698 FILLER_0_1294
*699 FILLER_0_1328
*700 FILLER_0_1362
*701 FILLER_0_138
*702 FILLER_0_1396
*703 FILLER_0_1430
*704 FILLER_0_1464
*705 FILLER_0_1498
*706 FILLER_0_1532
*707 FILLER_0_1566
*708 FILLER_0_1600
*709 FILLER_0_1634
*710 FILLER_0_1668
*711 FILLER_0_1702
*712 FILLER_0_172
*713 FILLER_0_1736
*714 FILLER_0_1770
*715 FILLER_0_1804
*716 FILLER_0_1838
*717 FILLER_0_1872
*718 FILLER_0_1906
*719 FILLER_0_2
*720 FILLER_0_206
*721 FILLER_0_240
*722 FILLER_0_274
*723 FILLER_0_308
*724 FILLER_0_342
*725 FILLER_0_36
*726 FILLER_0_376
*727 FILLER_0_410
*728 FILLER_0_444
*729 FILLER_0_478
*730 FILLER_0_512
*731 FILLER_0_546
*732 FILLER_0_580
*733 FILLER_0_614
*734 FILLER_0_648
*735 FILLER_0_682
*736 FILLER_0_70
*737 FILLER_0_716
*738 FILLER_0_750
*739 FILLER_0_784
*740 FILLER_0_818
*741 FILLER_0_834
*742 FILLER_0_881
*743 FILLER_0_883
*744 FILLER_0_916
*745 FILLER_0_920
*746 FILLER_0_950
*747 FILLER_0_983
*748 FILLER_0_985
*749 FILLER_0_988
*750 FILLER_0_990
*751 FILLER_100_1000
*752 FILLER_100_1002
*753 FILLER_100_101
*754 FILLER_100_107
*755 FILLER_100_123
*756 FILLER_100_1815
*757 FILLER_100_1847
*758 FILLER_100_1850
*759 FILLER_100_1914
*760 FILLER_100_1920
*761 FILLER_100_1936
*762 FILLER_100_2
*763 FILLER_100_34
*764 FILLER_100_37
*765 FILLER_100_937
*766 FILLER_100_969
*767 FILLER_100_972
*768 FILLER_100_988
*769 FILLER_100_996
*770 FILLER_101_1001
*771 FILLER_101_104
*772 FILLER_101_120
*773 FILLER_101_124
*774 FILLER_101_1815
*775 FILLER_101_1879
*776 FILLER_101_1885
*777 FILLER_101_1917
*778 FILLER_101_1933
*779 FILLER_101_1937
*780 FILLER_101_2
*781 FILLER_101_66
*782 FILLER_101_72
*783 FILLER_101_937
*784 FILLER_102_101
*785 FILLER_102_107
*786 FILLER_102_123
*787 FILLER_102_1815
*788 FILLER_102_1847
*789 FILLER_102_1850
*790 FILLER_102_1914
*791 FILLER_102_1920
*792 FILLER_102_1936
*793 FILLER_102_2
*794 FILLER_102_34
*795 FILLER_102_37
*796 FILLER_102_963
*797 FILLER_102_967
*798 FILLER_102_969
*799 FILLER_102_972
*800 FILLER_102_976
*801 FILLER_103_1001
*802 FILLER_103_104
*803 FILLER_103_120
*804 FILLER_103_124
*805 FILLER_103_1815
*806 FILLER_103_1879
*807 FILLER_103_1885
*808 FILLER_103_1917
*809 FILLER_103_1933
*810 FILLER_103_1937
*811 FILLER_103_36
*812 FILLER_103_68
*813 FILLER_103_72
*814 FILLER_103_937
*815 FILLER_104_1000
*816 FILLER_104_1002
*817 FILLER_104_101
*818 FILLER_104_107
*819 FILLER_104_123
*820 FILLER_104_1815
*821 FILLER_104_1847
*822 FILLER_104_1850
*823 FILLER_104_1914
*824 FILLER_104_1920
*825 FILLER_104_1936
*826 FILLER_104_2
*827 FILLER_104_34
*828 FILLER_104_37
*829 FILLER_104_937
*830 FILLER_104_969
*831 FILLER_104_972
*832 FILLER_104_988
*833 FILLER_104_996
*834 FILLER_105_1001
*835 FILLER_105_104
*836 FILLER_105_120
*837 FILLER_105_124
*838 FILLER_105_1815
*839 FILLER_105_1879
*840 FILLER_105_1885
*841 FILLER_105_1901
*842 FILLER_105_1903
*843 FILLER_105_36
*844 FILLER_105_68
*845 FILLER_105_72
*846 FILLER_105_937
*847 FILLER_106_1022
*848 FILLER_106_1038
*849 FILLER_106_104
*850 FILLER_106_1056
*851 FILLER_106_1090
*852 FILLER_106_1124
*853 FILLER_106_1140
*854 FILLER_106_1158
*855 FILLER_106_1192
*856 FILLER_106_1226
*857 FILLER_106_1260
*858 FILLER_106_1294
*859 FILLER_106_1328
*860 FILLER_106_1362
*861 FILLER_106_138
*862 FILLER_106_1396
*863 FILLER_106_1430
*864 FILLER_106_1464
*865 FILLER_106_1498
*866 FILLER_106_1532
*867 FILLER_106_1566
*868 FILLER_106_1600
*869 FILLER_106_1634
*870 FILLER_106_1668
*871 FILLER_106_1672
*872 FILLER_106_1674
*873 FILLER_106_1690
*874 FILLER_106_1698
*875 FILLER_106_1702
*876 FILLER_106_172
*877 FILLER_106_1736
*878 FILLER_106_1770
*879 FILLER_106_1804
*880 FILLER_106_1838
*881 FILLER_106_1872
*882 FILLER_106_1906
*883 FILLER_106_2
*884 FILLER_106_206
*885 FILLER_106_240
*886 FILLER_106_274
*887 FILLER_106_308
*888 FILLER_106_356
*889 FILLER_106_36
*890 FILLER_106_372
*891 FILLER_106_376
*892 FILLER_106_410
*893 FILLER_106_444
*894 FILLER_106_478
*895 FILLER_106_512
*896 FILLER_106_546
*897 FILLER_106_580
*898 FILLER_106_614
*899 FILLER_106_648
*900 FILLER_106_682
*901 FILLER_106_70
*902 FILLER_106_716
*903 FILLER_106_750
*904 FILLER_106_784
*905 FILLER_106_818
*906 FILLER_106_852
*907 FILLER_106_886
*908 FILLER_106_920
*909 FILLER_106_954
*910 FILLER_106_988
*911 FILLER_107_1046
*912 FILLER_107_1052
*913 FILLER_107_1116
*914 FILLER_107_1122
*915 FILLER_107_1186
*916 FILLER_107_1192
*917 FILLER_107_1256
*918 FILLER_107_1262
*919 FILLER_107_1326
*920 FILLER_107_1332
*921 FILLER_107_136
*922 FILLER_107_1396
*923 FILLER_107_1402
*924 FILLER_107_142
*925 FILLER_107_1466
*926 FILLER_107_1472
*927 FILLER_107_1488
*928 FILLER_107_1504
*929 FILLER_107_1536
*930 FILLER_107_1542
*931 FILLER_107_1606
*932 FILLER_107_1612
*933 FILLER_107_1628
*934 FILLER_107_1665
*935 FILLER_107_1673
*936 FILLER_107_1677
*937 FILLER_107_1679
*938 FILLER_107_1682
*939 FILLER_107_1746
*940 FILLER_107_1752
*941 FILLER_107_1816
*942 FILLER_107_1822
*943 FILLER_107_1886
*944 FILLER_107_1892
*945 FILLER_107_1900
*946 FILLER_107_206
*947 FILLER_107_212
*948 FILLER_107_244
*949 FILLER_107_260
*950 FILLER_107_264
*951 FILLER_107_266
*952 FILLER_107_272
*953 FILLER_107_282
*954 FILLER_107_346
*955 FILLER_107_352
*956 FILLER_107_36
*957 FILLER_107_416
*958 FILLER_107_422
*959 FILLER_107_486
*960 FILLER_107_492
*961 FILLER_107_556
*962 FILLER_107_562
*963 FILLER_107_626
*964 FILLER_107_632
*965 FILLER_107_68
*966 FILLER_107_696
*967 FILLER_107_702
*968 FILLER_107_72
*969 FILLER_107_766
*970 FILLER_107_772
*971 FILLER_107_836
*972 FILLER_107_842
*973 FILLER_107_858
*974 FILLER_107_866
*975 FILLER_107_896
*976 FILLER_107_904
*977 FILLER_107_908
*978 FILLER_107_912
*979 FILLER_107_976
*980 FILLER_107_982
*981 FILLER_108_101
*982 FILLER_108_1011
*983 FILLER_108_1017
*984 FILLER_108_107
*985 FILLER_108_1081
*986 FILLER_108_1087
*987 FILLER_108_1151
*988 FILLER_108_1157
*989 FILLER_108_1221
*990 FILLER_108_1227
*991 FILLER_108_1291
*992 FILLER_108_1297
*993 FILLER_108_1361
*994 FILLER_108_1367
*995 FILLER_108_1431
*996 FILLER_108_1437
*997 FILLER_108_1501
*998 FILLER_108_1507
*999 FILLER_108_1571
*1000 FILLER_108_1577
*1001 FILLER_108_1641
*1002 FILLER_108_1652
*1003 FILLER_108_1684
*1004 FILLER_108_1700
*1005 FILLER_108_1708
*1006 FILLER_108_171
*1007 FILLER_108_1712
*1008 FILLER_108_1714
*1009 FILLER_108_1717
*1010 FILLER_108_177
*1011 FILLER_108_1781
*1012 FILLER_108_1787
*1013 FILLER_108_1851
*1014 FILLER_108_1857
*1015 FILLER_108_1889
*1016 FILLER_108_1927
*1017 FILLER_108_193
*1018 FILLER_108_1935
*1019 FILLER_108_1937
*1020 FILLER_108_2
*1021 FILLER_108_201
*1022 FILLER_108_218
*1023 FILLER_108_234
*1024 FILLER_108_242
*1025 FILLER_108_244
*1026 FILLER_108_276
*1027 FILLER_108_308
*1028 FILLER_108_312
*1029 FILLER_108_314
*1030 FILLER_108_317
*1031 FILLER_108_34
*1032 FILLER_108_37
*1033 FILLER_108_381
*1034 FILLER_108_387
*1035 FILLER_108_451
*1036 FILLER_108_457
*1037 FILLER_108_521
*1038 FILLER_108_527
*1039 FILLER_108_591
*1040 FILLER_108_597
*1041 FILLER_108_661
*1042 FILLER_108_667
*1043 FILLER_108_731
*1044 FILLER_108_737
*1045 FILLER_108_801
*1046 FILLER_108_807
*1047 FILLER_108_871
*1048 FILLER_108_877
*1049 FILLER_108_941
*1050 FILLER_108_947
*1051 FILLER_109_1046
*1052 FILLER_109_1052
*1053 FILLER_109_1116
*1054 FILLER_109_1122
*1055 FILLER_109_1186
*1056 FILLER_109_1192
*1057 FILLER_109_1256
*1058 FILLER_109_1262
*1059 FILLER_109_1326
*1060 FILLER_109_1332
*1061 FILLER_109_136
*1062 FILLER_109_1396
*1063 FILLER_109_1402
*1064 FILLER_109_142
*1065 FILLER_109_1466
*1066 FILLER_109_1472
*1067 FILLER_109_1480
*1068 FILLER_109_1484
*1069 FILLER_109_1486
*1070 FILLER_109_1502
*1071 FILLER_109_1534
*1072 FILLER_109_1538
*1073 FILLER_109_1542
*1074 FILLER_109_1550
*1075 FILLER_109_1554
*1076 FILLER_109_1556
*1077 FILLER_109_1572
*1078 FILLER_109_1604
*1079 FILLER_109_1608
*1080 FILLER_109_1612
*1081 FILLER_109_1616
*1082 FILLER_109_1647
*1083 FILLER_109_1663
*1084 FILLER_109_1682
*1085 FILLER_109_1746
*1086 FILLER_109_1752
*1087 FILLER_109_1816
*1088 FILLER_109_1822
*1089 FILLER_109_1886
*1090 FILLER_109_1892
*1091 FILLER_109_1900
*1092 FILLER_109_206
*1093 FILLER_109_212
*1094 FILLER_109_220
*1095 FILLER_109_236
*1096 FILLER_109_244
*1097 FILLER_109_248
*1098 FILLER_109_250
*1099 FILLER_109_287
*1100 FILLER_109_319
*1101 FILLER_109_335
*1102 FILLER_109_343
*1103 FILLER_109_347
*1104 FILLER_109_349
*1105 FILLER_109_352
*1106 FILLER_109_416
*1107 FILLER_109_422
*1108 FILLER_109_486
*1109 FILLER_109_492
*1110 FILLER_109_556
*1111 FILLER_109_562
*1112 FILLER_109_626
*1113 FILLER_109_632
*1114 FILLER_109_696
*1115 FILLER_109_702
*1116 FILLER_109_72
*1117 FILLER_109_766
*1118 FILLER_109_772
*1119 FILLER_109_836
*1120 FILLER_109_842
*1121 FILLER_109_906
*1122 FILLER_109_912
*1123 FILLER_109_976
*1124 FILLER_109_982
*1125 FILLER_10_101
*1126 FILLER_10_1013
*1127 FILLER_10_107
*1128 FILLER_10_1094
*1129 FILLER_10_1096
*1130 FILLER_10_1153
*1131 FILLER_10_1183
*1132 FILLER_10_1215
*1133 FILLER_10_1223
*1134 FILLER_10_1227
*1135 FILLER_10_1291
*1136 FILLER_10_1297
*1137 FILLER_10_1329
*1138 FILLER_10_1337
*1139 FILLER_10_1364
*1140 FILLER_10_1367
*1141 FILLER_10_1431
*1142 FILLER_10_1437
*1143 FILLER_10_1501
*1144 FILLER_10_1507
*1145 FILLER_10_1523
*1146 FILLER_10_1531
*1147 FILLER_10_1533
*1148 FILLER_10_1539
*1149 FILLER_10_1571
*1150 FILLER_10_1577
*1151 FILLER_10_1641
*1152 FILLER_10_1647
*1153 FILLER_10_171
*1154 FILLER_10_1711
*1155 FILLER_10_1717
*1156 FILLER_10_177
*1157 FILLER_10_1781
*1158 FILLER_10_1787
*1159 FILLER_10_1851
*1160 FILLER_10_1857
*1161 FILLER_10_1921
*1162 FILLER_10_1927
*1163 FILLER_10_1935
*1164 FILLER_10_1937
*1165 FILLER_10_2
*1166 FILLER_10_241
*1167 FILLER_10_247
*1168 FILLER_10_311
*1169 FILLER_10_317
*1170 FILLER_10_34
*1171 FILLER_10_349
*1172 FILLER_10_365
*1173 FILLER_10_37
*1174 FILLER_10_373
*1175 FILLER_10_382
*1176 FILLER_10_384
*1177 FILLER_10_387
*1178 FILLER_10_451
*1179 FILLER_10_457
*1180 FILLER_10_521
*1181 FILLER_10_527
*1182 FILLER_10_591
*1183 FILLER_10_597
*1184 FILLER_10_661
*1185 FILLER_10_667
*1186 FILLER_10_731
*1187 FILLER_10_737
*1188 FILLER_10_788
*1189 FILLER_10_796
*1190 FILLER_10_807
*1191 FILLER_110_101
*1192 FILLER_110_1011
*1193 FILLER_110_1017
*1194 FILLER_110_107
*1195 FILLER_110_1081
*1196 FILLER_110_1087
*1197 FILLER_110_1151
*1198 FILLER_110_1157
*1199 FILLER_110_1221
*1200 FILLER_110_1227
*1201 FILLER_110_1291
*1202 FILLER_110_1297
*1203 FILLER_110_1361
*1204 FILLER_110_1367
*1205 FILLER_110_1383
*1206 FILLER_110_1391
*1207 FILLER_110_1426
*1208 FILLER_110_1434
*1209 FILLER_110_1437
*1210 FILLER_110_1453
*1211 FILLER_110_1457
*1212 FILLER_110_1493
*1213 FILLER_110_1507
*1214 FILLER_110_1571
*1215 FILLER_110_1577
*1216 FILLER_110_1593
*1217 FILLER_110_1624
*1218 FILLER_110_1628
*1219 FILLER_110_1630
*1220 FILLER_110_1636
*1221 FILLER_110_1647
*1222 FILLER_110_1651
*1223 FILLER_110_1653
*1224 FILLER_110_1689
*1225 FILLER_110_1705
*1226 FILLER_110_171
*1227 FILLER_110_1713
*1228 FILLER_110_1717
*1229 FILLER_110_177
*1230 FILLER_110_1781
*1231 FILLER_110_1787
*1232 FILLER_110_1851
*1233 FILLER_110_1857
*1234 FILLER_110_1889
*1235 FILLER_110_1927
*1236 FILLER_110_193
*1237 FILLER_110_1935
*1238 FILLER_110_1937
*1239 FILLER_110_2
*1240 FILLER_110_201
*1241 FILLER_110_205
*1242 FILLER_110_207
*1243 FILLER_110_223
*1244 FILLER_110_239
*1245 FILLER_110_243
*1246 FILLER_110_247
*1247 FILLER_110_249
*1248 FILLER_110_313
*1249 FILLER_110_332
*1250 FILLER_110_34
*1251 FILLER_110_364
*1252 FILLER_110_366
*1253 FILLER_110_37
*1254 FILLER_110_382
*1255 FILLER_110_384
*1256 FILLER_110_387
*1257 FILLER_110_418
*1258 FILLER_110_450
*1259 FILLER_110_454
*1260 FILLER_110_457
*1261 FILLER_110_521
*1262 FILLER_110_527
*1263 FILLER_110_591
*1264 FILLER_110_597
*1265 FILLER_110_661
*1266 FILLER_110_667
*1267 FILLER_110_731
*1268 FILLER_110_737
*1269 FILLER_110_801
*1270 FILLER_110_812
*1271 FILLER_110_844
*1272 FILLER_110_860
*1273 FILLER_110_868
*1274 FILLER_110_872
*1275 FILLER_110_874
*1276 FILLER_110_877
*1277 FILLER_110_941
*1278 FILLER_110_947
*1279 FILLER_111_1046
*1280 FILLER_111_1052
*1281 FILLER_111_1116
*1282 FILLER_111_1122
*1283 FILLER_111_1186
*1284 FILLER_111_1192
*1285 FILLER_111_1256
*1286 FILLER_111_1262
*1287 FILLER_111_1326
*1288 FILLER_111_1332
*1289 FILLER_111_136
*1290 FILLER_111_1364
*1291 FILLER_111_1368
*1292 FILLER_111_1370
*1293 FILLER_111_1376
*1294 FILLER_111_1392
*1295 FILLER_111_1402
*1296 FILLER_111_142
*1297 FILLER_111_1434
*1298 FILLER_111_1438
*1299 FILLER_111_1445
*1300 FILLER_111_1461
*1301 FILLER_111_1469
*1302 FILLER_111_1472
*1303 FILLER_111_1536
*1304 FILLER_111_1542
*1305 FILLER_111_1574
*1306 FILLER_111_1590
*1307 FILLER_111_1598
*1308 FILLER_111_1602
*1309 FILLER_111_1604
*1310 FILLER_111_1612
*1311 FILLER_111_1657
*1312 FILLER_111_1673
*1313 FILLER_111_1677
*1314 FILLER_111_1679
*1315 FILLER_111_1682
*1316 FILLER_111_1746
*1317 FILLER_111_1752
*1318 FILLER_111_1816
*1319 FILLER_111_1822
*1320 FILLER_111_1886
*1321 FILLER_111_1892
*1322 FILLER_111_1900
*1323 FILLER_111_206
*1324 FILLER_111_227
*1325 FILLER_111_243
*1326 FILLER_111_252
*1327 FILLER_111_273
*1328 FILLER_111_282
*1329 FILLER_111_303
*1330 FILLER_111_335
*1331 FILLER_111_343
*1332 FILLER_111_347
*1333 FILLER_111_349
*1334 FILLER_111_352
*1335 FILLER_111_36
*1336 FILLER_111_416
*1337 FILLER_111_422
*1338 FILLER_111_428
*1339 FILLER_111_444
*1340 FILLER_111_452
*1341 FILLER_111_456
*1342 FILLER_111_486
*1343 FILLER_111_492
*1344 FILLER_111_494
*1345 FILLER_111_500
*1346 FILLER_111_532
*1347 FILLER_111_548
*1348 FILLER_111_556
*1349 FILLER_111_562
*1350 FILLER_111_626
*1351 FILLER_111_632
*1352 FILLER_111_68
*1353 FILLER_111_696
*1354 FILLER_111_702
*1355 FILLER_111_72
*1356 FILLER_111_766
*1357 FILLER_111_772
*1358 FILLER_111_780
*1359 FILLER_111_784
*1360 FILLER_111_786
*1361 FILLER_111_816
*1362 FILLER_111_832
*1363 FILLER_111_842
*1364 FILLER_111_858
*1365 FILLER_111_881
*1366 FILLER_111_897
*1367 FILLER_111_905
*1368 FILLER_111_909
*1369 FILLER_111_912
*1370 FILLER_111_976
*1371 FILLER_111_982
*1372 FILLER_112_101
*1373 FILLER_112_1011
*1374 FILLER_112_1017
*1375 FILLER_112_107
*1376 FILLER_112_1081
*1377 FILLER_112_1087
*1378 FILLER_112_1151
*1379 FILLER_112_1157
*1380 FILLER_112_1221
*1381 FILLER_112_1227
*1382 FILLER_112_1291
*1383 FILLER_112_1297
*1384 FILLER_112_1361
*1385 FILLER_112_1367
*1386 FILLER_112_1431
*1387 FILLER_112_1437
*1388 FILLER_112_1501
*1389 FILLER_112_1507
*1390 FILLER_112_1571
*1391 FILLER_112_1577
*1392 FILLER_112_1614
*1393 FILLER_112_1630
*1394 FILLER_112_1643
*1395 FILLER_112_1647
*1396 FILLER_112_1653
*1397 FILLER_112_1685
*1398 FILLER_112_1701
*1399 FILLER_112_1709
*1400 FILLER_112_171
*1401 FILLER_112_1713
*1402 FILLER_112_1717
*1403 FILLER_112_177
*1404 FILLER_112_1781
*1405 FILLER_112_1787
*1406 FILLER_112_1851
*1407 FILLER_112_1857
*1408 FILLER_112_1921
*1409 FILLER_112_1927
*1410 FILLER_112_1935
*1411 FILLER_112_1937
*1412 FILLER_112_2
*1413 FILLER_112_241
*1414 FILLER_112_247
*1415 FILLER_112_255
*1416 FILLER_112_259
*1417 FILLER_112_261
*1418 FILLER_112_267
*1419 FILLER_112_299
*1420 FILLER_112_317
*1421 FILLER_112_34
*1422 FILLER_112_37
*1423 FILLER_112_381
*1424 FILLER_112_387
*1425 FILLER_112_419
*1426 FILLER_112_435
*1427 FILLER_112_439
*1428 FILLER_112_445
*1429 FILLER_112_453
*1430 FILLER_112_457
*1431 FILLER_112_489
*1432 FILLER_112_505
*1433 FILLER_112_509
*1434 FILLER_112_511
*1435 FILLER_112_517
*1436 FILLER_112_527
*1437 FILLER_112_591
*1438 FILLER_112_597
*1439 FILLER_112_661
*1440 FILLER_112_667
*1441 FILLER_112_731
*1442 FILLER_112_737
*1443 FILLER_112_801
*1444 FILLER_112_821
*1445 FILLER_112_837
*1446 FILLER_112_874
*1447 FILLER_112_877
*1448 FILLER_112_941
*1449 FILLER_112_947
*1450 FILLER_113_1046
*1451 FILLER_113_1052
*1452 FILLER_113_1116
*1453 FILLER_113_1122
*1454 FILLER_113_1186
*1455 FILLER_113_1192
*1456 FILLER_113_1224
*1457 FILLER_113_1240
*1458 FILLER_113_1248
*1459 FILLER_113_1250
*1460 FILLER_113_1258
*1461 FILLER_113_1262
*1462 FILLER_113_1326
*1463 FILLER_113_1332
*1464 FILLER_113_1340
*1465 FILLER_113_136
*1466 FILLER_113_1372
*1467 FILLER_113_1388
*1468 FILLER_113_1396
*1469 FILLER_113_1402
*1470 FILLER_113_142
*1471 FILLER_113_1466
*1472 FILLER_113_1472
*1473 FILLER_113_1536
*1474 FILLER_113_1542
*1475 FILLER_113_1606
*1476 FILLER_113_1612
*1477 FILLER_113_1628
*1478 FILLER_113_1639
*1479 FILLER_113_1655
*1480 FILLER_113_1663
*1481 FILLER_113_1672
*1482 FILLER_113_1682
*1483 FILLER_113_1746
*1484 FILLER_113_1752
*1485 FILLER_113_1816
*1486 FILLER_113_1822
*1487 FILLER_113_1886
*1488 FILLER_113_1892
*1489 FILLER_113_1924
*1490 FILLER_113_1932
*1491 FILLER_113_1936
*1492 FILLER_113_206
*1493 FILLER_113_212
*1494 FILLER_113_251
*1495 FILLER_113_267
*1496 FILLER_113_275
*1497 FILLER_113_279
*1498 FILLER_113_282
*1499 FILLER_113_346
*1500 FILLER_113_352
*1501 FILLER_113_36
*1502 FILLER_113_416
*1503 FILLER_113_422
*1504 FILLER_113_486
*1505 FILLER_113_492
*1506 FILLER_113_556
*1507 FILLER_113_562
*1508 FILLER_113_626
*1509 FILLER_113_632
*1510 FILLER_113_68
*1511 FILLER_113_696
*1512 FILLER_113_702
*1513 FILLER_113_72
*1514 FILLER_113_766
*1515 FILLER_113_772
*1516 FILLER_113_788
*1517 FILLER_113_792
*1518 FILLER_113_794
*1519 FILLER_113_807
*1520 FILLER_113_839
*1521 FILLER_113_857
*1522 FILLER_113_859
*1523 FILLER_113_865
*1524 FILLER_113_897
*1525 FILLER_113_905
*1526 FILLER_113_909
*1527 FILLER_113_912
*1528 FILLER_113_976
*1529 FILLER_113_982
*1530 FILLER_114_1022
*1531 FILLER_114_104
*1532 FILLER_114_1056
*1533 FILLER_114_1090
*1534 FILLER_114_1132
*1535 FILLER_114_1136
*1536 FILLER_114_1146
*1537 FILLER_114_1154
*1538 FILLER_114_1158
*1539 FILLER_114_1192
*1540 FILLER_114_1226
*1541 FILLER_114_1260
*1542 FILLER_114_1294
*1543 FILLER_114_1302
*1544 FILLER_114_1306
*1545 FILLER_114_1308
*1546 FILLER_114_1317
*1547 FILLER_114_1325
*1548 FILLER_114_1328
*1549 FILLER_114_1362
*1550 FILLER_114_138
*1551 FILLER_114_1396
*1552 FILLER_114_1430
*1553 FILLER_114_1464
*1554 FILLER_114_1498
*1555 FILLER_114_1532
*1556 FILLER_114_1566
*1557 FILLER_114_1582
*1558 FILLER_114_1590
*1559 FILLER_114_1600
*1560 FILLER_114_1634
*1561 FILLER_114_1642
*1562 FILLER_114_1650
*1563 FILLER_114_1676
*1564 FILLER_114_1692
*1565 FILLER_114_1702
*1566 FILLER_114_172
*1567 FILLER_114_1736
*1568 FILLER_114_1744
*1569 FILLER_114_1748
*1570 FILLER_114_1765
*1571 FILLER_114_1767
*1572 FILLER_114_1770
*1573 FILLER_114_1804
*1574 FILLER_114_1838
*1575 FILLER_114_1872
*1576 FILLER_114_1906
*1577 FILLER_114_2
*1578 FILLER_114_206
*1579 FILLER_114_222
*1580 FILLER_114_224
*1581 FILLER_114_233
*1582 FILLER_114_237
*1583 FILLER_114_240
*1584 FILLER_114_256
*1585 FILLER_114_264
*1586 FILLER_114_274
*1587 FILLER_114_285
*1588 FILLER_114_301
*1589 FILLER_114_305
*1590 FILLER_114_308
*1591 FILLER_114_316
*1592 FILLER_114_327
*1593 FILLER_114_335
*1594 FILLER_114_339
*1595 FILLER_114_342
*1596 FILLER_114_36
*1597 FILLER_114_376
*1598 FILLER_114_410
*1599 FILLER_114_444
*1600 FILLER_114_478
*1601 FILLER_114_512
*1602 FILLER_114_546
*1603 FILLER_114_554
*1604 FILLER_114_558
*1605 FILLER_114_566
*1606 FILLER_114_574
*1607 FILLER_114_580
*1608 FILLER_114_596
*1609 FILLER_114_600
*1610 FILLER_114_602
*1611 FILLER_114_611
*1612 FILLER_114_614
*1613 FILLER_114_630
*1614 FILLER_114_638
*1615 FILLER_114_648
*1616 FILLER_114_682
*1617 FILLER_114_70
*1618 FILLER_114_716
*1619 FILLER_114_724
*1620 FILLER_114_739
*1621 FILLER_114_747
*1622 FILLER_114_750
*1623 FILLER_114_766
*1624 FILLER_114_807
*1625 FILLER_114_815
*1626 FILLER_114_818
*1627 FILLER_114_826
*1628 FILLER_114_828
*1629 FILLER_114_843
*1630 FILLER_114_847
*1631 FILLER_114_849
*1632 FILLER_114_852
*1633 FILLER_114_860
*1634 FILLER_114_868
*1635 FILLER_114_886
*1636 FILLER_114_920
*1637 FILLER_114_954
*1638 FILLER_114_988
*1639 FILLER_115_1001
*1640 FILLER_115_104
*1641 FILLER_115_120
*1642 FILLER_115_124
*1643 FILLER_115_1815
*1644 FILLER_115_1879
*1645 FILLER_115_1885
*1646 FILLER_115_1901
*1647 FILLER_115_1903
*1648 FILLER_115_36
*1649 FILLER_115_68
*1650 FILLER_115_72
*1651 FILLER_115_937
*1652 FILLER_116_1000
*1653 FILLER_116_1002
*1654 FILLER_116_101
*1655 FILLER_116_107
*1656 FILLER_116_123
*1657 FILLER_116_1815
*1658 FILLER_116_1847
*1659 FILLER_116_1850
*1660 FILLER_116_1882
*1661 FILLER_116_1920
*1662 FILLER_116_1936
*1663 FILLER_116_2
*1664 FILLER_116_34
*1665 FILLER_116_37
*1666 FILLER_116_937
*1667 FILLER_116_969
*1668 FILLER_116_972
*1669 FILLER_116_988
*1670 FILLER_116_996
*1671 FILLER_117_1001
*1672 FILLER_117_104
*1673 FILLER_117_112
*1674 FILLER_117_116
*1675 FILLER_117_1823
*1676 FILLER_117_1855
*1677 FILLER_117_1871
*1678 FILLER_117_1879
*1679 FILLER_117_1885
*1680 FILLER_117_1901
*1681 FILLER_117_1903
*1682 FILLER_117_36
*1683 FILLER_117_68
*1684 FILLER_117_72
*1685 FILLER_117_937
*1686 FILLER_118_1000
*1687 FILLER_118_1002
*1688 FILLER_118_101
*1689 FILLER_118_107
*1690 FILLER_118_123
*1691 FILLER_118_1815
*1692 FILLER_118_1847
*1693 FILLER_118_1850
*1694 FILLER_118_1882
*1695 FILLER_118_1920
*1696 FILLER_118_1936
*1697 FILLER_118_2
*1698 FILLER_118_34
*1699 FILLER_118_37
*1700 FILLER_118_937
*1701 FILLER_118_969
*1702 FILLER_118_972
*1703 FILLER_118_988
*1704 FILLER_118_996
*1705 FILLER_119_1001
*1706 FILLER_119_104
*1707 FILLER_119_120
*1708 FILLER_119_124
*1709 FILLER_119_1815
*1710 FILLER_119_1879
*1711 FILLER_119_1885
*1712 FILLER_119_1901
*1713 FILLER_119_1903
*1714 FILLER_119_36
*1715 FILLER_119_68
*1716 FILLER_119_72
*1717 FILLER_119_937
*1718 FILLER_11_1041
*1719 FILLER_11_1108
*1720 FILLER_11_1116
*1721 FILLER_11_1136
*1722 FILLER_11_1179
*1723 FILLER_11_1187
*1724 FILLER_11_1189
*1725 FILLER_11_1192
*1726 FILLER_11_1256
*1727 FILLER_11_1262
*1728 FILLER_11_1326
*1729 FILLER_11_1358
*1730 FILLER_11_136
*1731 FILLER_11_1390
*1732 FILLER_11_1398
*1733 FILLER_11_1402
*1734 FILLER_11_142
*1735 FILLER_11_1466
*1736 FILLER_11_1472
*1737 FILLER_11_1536
*1738 FILLER_11_1542
*1739 FILLER_11_1606
*1740 FILLER_11_1612
*1741 FILLER_11_1676
*1742 FILLER_11_1682
*1743 FILLER_11_1746
*1744 FILLER_11_1752
*1745 FILLER_11_1816
*1746 FILLER_11_1822
*1747 FILLER_11_1886
*1748 FILLER_11_1892
*1749 FILLER_11_1924
*1750 FILLER_11_1932
*1751 FILLER_11_1936
*1752 FILLER_11_2
*1753 FILLER_11_206
*1754 FILLER_11_212
*1755 FILLER_11_276
*1756 FILLER_11_282
*1757 FILLER_11_346
*1758 FILLER_11_352
*1759 FILLER_11_416
*1760 FILLER_11_422
*1761 FILLER_11_486
*1762 FILLER_11_492
*1763 FILLER_11_556
*1764 FILLER_11_562
*1765 FILLER_11_594
*1766 FILLER_11_598
*1767 FILLER_11_626
*1768 FILLER_11_658
*1769 FILLER_11_66
*1770 FILLER_11_690
*1771 FILLER_11_698
*1772 FILLER_11_702
*1773 FILLER_11_72
*1774 FILLER_11_734
*1775 FILLER_11_738
*1776 FILLER_11_746
*1777 FILLER_11_762
*1778 FILLER_11_772
*1779 FILLER_11_825
*1780 FILLER_11_899
*1781 FILLER_120_1000
*1782 FILLER_120_1002
*1783 FILLER_120_101
*1784 FILLER_120_107
*1785 FILLER_120_123
*1786 FILLER_120_1815
*1787 FILLER_120_1847
*1788 FILLER_120_1850
*1789 FILLER_120_1914
*1790 FILLER_120_1920
*1791 FILLER_120_1936
*1792 FILLER_120_2
*1793 FILLER_120_34
*1794 FILLER_120_37
*1795 FILLER_120_937
*1796 FILLER_120_969
*1797 FILLER_120_972
*1798 FILLER_120_988
*1799 FILLER_120_996
*1800 FILLER_121_1001
*1801 FILLER_121_104
*1802 FILLER_121_120
*1803 FILLER_121_124
*1804 FILLER_121_1815
*1805 FILLER_121_1879
*1806 FILLER_121_1885
*1807 FILLER_121_1917
*1808 FILLER_121_1933
*1809 FILLER_121_1937
*1810 FILLER_121_36
*1811 FILLER_121_68
*1812 FILLER_121_72
*1813 FILLER_121_937
*1814 FILLER_122_1000
*1815 FILLER_122_1002
*1816 FILLER_122_101
*1817 FILLER_122_107
*1818 FILLER_122_123
*1819 FILLER_122_1815
*1820 FILLER_122_1847
*1821 FILLER_122_1850
*1822 FILLER_122_1914
*1823 FILLER_122_1920
*1824 FILLER_122_1936
*1825 FILLER_122_2
*1826 FILLER_122_34
*1827 FILLER_122_37
*1828 FILLER_122_937
*1829 FILLER_122_969
*1830 FILLER_122_972
*1831 FILLER_122_988
*1832 FILLER_122_996
*1833 FILLER_123_1001
*1834 FILLER_123_104
*1835 FILLER_123_120
*1836 FILLER_123_124
*1837 FILLER_123_1815
*1838 FILLER_123_1879
*1839 FILLER_123_1885
*1840 FILLER_123_1917
*1841 FILLER_123_1933
*1842 FILLER_123_1937
*1843 FILLER_123_2
*1844 FILLER_123_66
*1845 FILLER_123_72
*1846 FILLER_123_937
*1847 FILLER_124_1000
*1848 FILLER_124_1002
*1849 FILLER_124_101
*1850 FILLER_124_107
*1851 FILLER_124_123
*1852 FILLER_124_1815
*1853 FILLER_124_1847
*1854 FILLER_124_1850
*1855 FILLER_124_1914
*1856 FILLER_124_1920
*1857 FILLER_124_1936
*1858 FILLER_124_2
*1859 FILLER_124_34
*1860 FILLER_124_37
*1861 FILLER_124_937
*1862 FILLER_124_969
*1863 FILLER_124_972
*1864 FILLER_124_988
*1865 FILLER_124_996
*1866 FILLER_125_104
*1867 FILLER_125_120
*1868 FILLER_125_124
*1869 FILLER_125_1815
*1870 FILLER_125_1879
*1871 FILLER_125_1885
*1872 FILLER_125_1917
*1873 FILLER_125_1933
*1874 FILLER_125_1937
*1875 FILLER_125_2
*1876 FILLER_125_66
*1877 FILLER_125_72
*1878 FILLER_125_937
*1879 FILLER_125_969
*1880 FILLER_125_985
*1881 FILLER_125_993
*1882 FILLER_126_1000
*1883 FILLER_126_1002
*1884 FILLER_126_101
*1885 FILLER_126_107
*1886 FILLER_126_123
*1887 FILLER_126_1815
*1888 FILLER_126_1847
*1889 FILLER_126_1850
*1890 FILLER_126_1914
*1891 FILLER_126_1920
*1892 FILLER_126_1936
*1893 FILLER_126_2
*1894 FILLER_126_34
*1895 FILLER_126_37
*1896 FILLER_126_945
*1897 FILLER_126_961
*1898 FILLER_126_969
*1899 FILLER_126_972
*1900 FILLER_126_988
*1901 FILLER_126_996
*1902 FILLER_127_1001
*1903 FILLER_127_104
*1904 FILLER_127_120
*1905 FILLER_127_124
*1906 FILLER_127_1815
*1907 FILLER_127_1879
*1908 FILLER_127_1885
*1909 FILLER_127_1917
*1910 FILLER_127_1933
*1911 FILLER_127_1937
*1912 FILLER_127_2
*1913 FILLER_127_66
*1914 FILLER_127_72
*1915 FILLER_127_937
*1916 FILLER_128_1000
*1917 FILLER_128_1002
*1918 FILLER_128_101
*1919 FILLER_128_107
*1920 FILLER_128_123
*1921 FILLER_128_1815
*1922 FILLER_128_1847
*1923 FILLER_128_1850
*1924 FILLER_128_1914
*1925 FILLER_128_1920
*1926 FILLER_128_1936
*1927 FILLER_128_2
*1928 FILLER_128_34
*1929 FILLER_128_37
*1930 FILLER_128_937
*1931 FILLER_128_969
*1932 FILLER_128_972
*1933 FILLER_128_988
*1934 FILLER_128_996
*1935 FILLER_129_1001
*1936 FILLER_129_104
*1937 FILLER_129_120
*1938 FILLER_129_124
*1939 FILLER_129_1815
*1940 FILLER_129_1879
*1941 FILLER_129_1885
*1942 FILLER_129_1917
*1943 FILLER_129_1933
*1944 FILLER_129_1937
*1945 FILLER_129_2
*1946 FILLER_129_66
*1947 FILLER_129_72
*1948 FILLER_129_937
*1949 FILLER_12_104
*1950 FILLER_12_1085
*1951 FILLER_12_1087
*1952 FILLER_12_1155
*1953 FILLER_12_1184
*1954 FILLER_12_1188
*1955 FILLER_12_1192
*1956 FILLER_12_1196
*1957 FILLER_12_1205
*1958 FILLER_12_1221
*1959 FILLER_12_1223
*1960 FILLER_12_1226
*1961 FILLER_12_1260
*1962 FILLER_12_1294
*1963 FILLER_12_1354
*1964 FILLER_12_1358
*1965 FILLER_12_138
*1966 FILLER_12_1388
*1967 FILLER_12_1392
*1968 FILLER_12_1396
*1969 FILLER_12_1430
*1970 FILLER_12_1464
*1971 FILLER_12_1498
*1972 FILLER_12_1532
*1973 FILLER_12_1541
*1974 FILLER_12_1557
*1975 FILLER_12_1561
*1976 FILLER_12_1563
*1977 FILLER_12_1566
*1978 FILLER_12_1574
*1979 FILLER_12_1578
*1980 FILLER_12_1594
*1981 FILLER_12_1600
*1982 FILLER_12_1604
*1983 FILLER_12_1606
*1984 FILLER_12_1614
*1985 FILLER_12_1630
*1986 FILLER_12_1634
*1987 FILLER_12_1668
*1988 FILLER_12_1702
*1989 FILLER_12_172
*1990 FILLER_12_1736
*1991 FILLER_12_1770
*1992 FILLER_12_1804
*1993 FILLER_12_1838
*1994 FILLER_12_1872
*1995 FILLER_12_1906
*1996 FILLER_12_2
*1997 FILLER_12_206
*1998 FILLER_12_240
*1999 FILLER_12_274
*2000 FILLER_12_290
*2001 FILLER_12_294
*2002 FILLER_12_296
*2003 FILLER_12_304
*2004 FILLER_12_308
*2005 FILLER_12_316
*2006 FILLER_12_320
*2007 FILLER_12_335
*2008 FILLER_12_339
*2009 FILLER_12_342
*2010 FILLER_12_36
*2011 FILLER_12_383
*2012 FILLER_12_399
*2013 FILLER_12_407
*2014 FILLER_12_410
*2015 FILLER_12_444
*2016 FILLER_12_478
*2017 FILLER_12_512
*2018 FILLER_12_546
*2019 FILLER_12_580
*2020 FILLER_12_584
*2021 FILLER_12_614
*2022 FILLER_12_642
*2023 FILLER_12_648
*2024 FILLER_12_682
*2025 FILLER_12_70
*2026 FILLER_12_716
*2027 FILLER_12_732
*2028 FILLER_12_736
*2029 FILLER_12_750
*2030 FILLER_12_784
*2031 FILLER_12_844
*2032 FILLER_12_852
*2033 FILLER_12_854
*2034 FILLER_12_920
*2035 FILLER_12_967
*2036 FILLER_12_969
*2037 FILLER_12_984
*2038 FILLER_12_988
*2039 FILLER_12_990
*2040 FILLER_130_1000
*2041 FILLER_130_1002
*2042 FILLER_130_101
*2043 FILLER_130_107
*2044 FILLER_130_123
*2045 FILLER_130_1815
*2046 FILLER_130_1847
*2047 FILLER_130_1850
*2048 FILLER_130_1914
*2049 FILLER_130_1920
*2050 FILLER_130_1936
*2051 FILLER_130_2
*2052 FILLER_130_34
*2053 FILLER_130_37
*2054 FILLER_130_937
*2055 FILLER_130_969
*2056 FILLER_130_972
*2057 FILLER_130_988
*2058 FILLER_130_996
*2059 FILLER_131_1001
*2060 FILLER_131_104
*2061 FILLER_131_120
*2062 FILLER_131_124
*2063 FILLER_131_1815
*2064 FILLER_131_1879
*2065 FILLER_131_1885
*2066 FILLER_131_1917
*2067 FILLER_131_1933
*2068 FILLER_131_1937
*2069 FILLER_131_2
*2070 FILLER_131_66
*2071 FILLER_131_72
*2072 FILLER_131_937
*2073 FILLER_132_1000
*2074 FILLER_132_1002
*2075 FILLER_132_101
*2076 FILLER_132_107
*2077 FILLER_132_123
*2078 FILLER_132_1815
*2079 FILLER_132_1847
*2080 FILLER_132_1850
*2081 FILLER_132_1914
*2082 FILLER_132_1920
*2083 FILLER_132_1936
*2084 FILLER_132_2
*2085 FILLER_132_34
*2086 FILLER_132_37
*2087 FILLER_132_937
*2088 FILLER_132_969
*2089 FILLER_132_972
*2090 FILLER_132_988
*2091 FILLER_132_996
*2092 FILLER_133_1001
*2093 FILLER_133_104
*2094 FILLER_133_120
*2095 FILLER_133_124
*2096 FILLER_133_1815
*2097 FILLER_133_1879
*2098 FILLER_133_1885
*2099 FILLER_133_1917
*2100 FILLER_133_1933
*2101 FILLER_133_1937
*2102 FILLER_133_2
*2103 FILLER_133_66
*2104 FILLER_133_72
*2105 FILLER_133_937
*2106 FILLER_134_1000
*2107 FILLER_134_1002
*2108 FILLER_134_101
*2109 FILLER_134_107
*2110 FILLER_134_123
*2111 FILLER_134_1815
*2112 FILLER_134_1847
*2113 FILLER_134_1850
*2114 FILLER_134_1914
*2115 FILLER_134_1920
*2116 FILLER_134_1936
*2117 FILLER_134_2
*2118 FILLER_134_34
*2119 FILLER_134_37
*2120 FILLER_134_937
*2121 FILLER_134_969
*2122 FILLER_134_972
*2123 FILLER_134_988
*2124 FILLER_134_996
*2125 FILLER_135_1001
*2126 FILLER_135_104
*2127 FILLER_135_120
*2128 FILLER_135_124
*2129 FILLER_135_1815
*2130 FILLER_135_1879
*2131 FILLER_135_1885
*2132 FILLER_135_1917
*2133 FILLER_135_1933
*2134 FILLER_135_1937
*2135 FILLER_135_2
*2136 FILLER_135_66
*2137 FILLER_135_72
*2138 FILLER_135_937
*2139 FILLER_136_1000
*2140 FILLER_136_1002
*2141 FILLER_136_101
*2142 FILLER_136_107
*2143 FILLER_136_123
*2144 FILLER_136_1815
*2145 FILLER_136_1847
*2146 FILLER_136_1850
*2147 FILLER_136_1914
*2148 FILLER_136_1920
*2149 FILLER_136_1936
*2150 FILLER_136_2
*2151 FILLER_136_34
*2152 FILLER_136_37
*2153 FILLER_136_937
*2154 FILLER_136_969
*2155 FILLER_136_972
*2156 FILLER_136_988
*2157 FILLER_136_996
*2158 FILLER_137_1001
*2159 FILLER_137_104
*2160 FILLER_137_120
*2161 FILLER_137_124
*2162 FILLER_137_1815
*2163 FILLER_137_1879
*2164 FILLER_137_1885
*2165 FILLER_137_1917
*2166 FILLER_137_1933
*2167 FILLER_137_1937
*2168 FILLER_137_2
*2169 FILLER_137_66
*2170 FILLER_137_72
*2171 FILLER_137_937
*2172 FILLER_138_1000
*2173 FILLER_138_1002
*2174 FILLER_138_101
*2175 FILLER_138_107
*2176 FILLER_138_123
*2177 FILLER_138_1815
*2178 FILLER_138_1847
*2179 FILLER_138_1850
*2180 FILLER_138_1914
*2181 FILLER_138_1920
*2182 FILLER_138_1936
*2183 FILLER_138_2
*2184 FILLER_138_34
*2185 FILLER_138_37
*2186 FILLER_138_937
*2187 FILLER_138_969
*2188 FILLER_138_972
*2189 FILLER_138_988
*2190 FILLER_138_996
*2191 FILLER_139_1001
*2192 FILLER_139_104
*2193 FILLER_139_120
*2194 FILLER_139_124
*2195 FILLER_139_1815
*2196 FILLER_139_1879
*2197 FILLER_139_1885
*2198 FILLER_139_1917
*2199 FILLER_139_1933
*2200 FILLER_139_1937
*2201 FILLER_139_2
*2202 FILLER_139_66
*2203 FILLER_139_72
*2204 FILLER_139_937
*2205 FILLER_13_104
*2206 FILLER_13_120
*2207 FILLER_13_124
*2208 FILLER_13_1815
*2209 FILLER_13_1879
*2210 FILLER_13_1885
*2211 FILLER_13_1917
*2212 FILLER_13_1933
*2213 FILLER_13_1937
*2214 FILLER_13_2
*2215 FILLER_13_66
*2216 FILLER_13_72
*2217 FILLER_13_937
*2218 FILLER_13_954
*2219 FILLER_13_994
*2220 FILLER_13_996
*2221 FILLER_140_1000
*2222 FILLER_140_1002
*2223 FILLER_140_101
*2224 FILLER_140_107
*2225 FILLER_140_123
*2226 FILLER_140_1815
*2227 FILLER_140_1847
*2228 FILLER_140_1850
*2229 FILLER_140_1914
*2230 FILLER_140_1920
*2231 FILLER_140_1936
*2232 FILLER_140_2
*2233 FILLER_140_34
*2234 FILLER_140_37
*2235 FILLER_140_937
*2236 FILLER_140_969
*2237 FILLER_140_972
*2238 FILLER_140_988
*2239 FILLER_140_996
*2240 FILLER_141_1001
*2241 FILLER_141_104
*2242 FILLER_141_120
*2243 FILLER_141_124
*2244 FILLER_141_1815
*2245 FILLER_141_1879
*2246 FILLER_141_1885
*2247 FILLER_141_1917
*2248 FILLER_141_1933
*2249 FILLER_141_1937
*2250 FILLER_141_2
*2251 FILLER_141_66
*2252 FILLER_141_72
*2253 FILLER_141_937
*2254 FILLER_142_1000
*2255 FILLER_142_1002
*2256 FILLER_142_101
*2257 FILLER_142_107
*2258 FILLER_142_123
*2259 FILLER_142_1815
*2260 FILLER_142_1847
*2261 FILLER_142_1850
*2262 FILLER_142_1914
*2263 FILLER_142_1920
*2264 FILLER_142_1936
*2265 FILLER_142_2
*2266 FILLER_142_34
*2267 FILLER_142_37
*2268 FILLER_142_937
*2269 FILLER_142_969
*2270 FILLER_142_972
*2271 FILLER_142_988
*2272 FILLER_142_996
*2273 FILLER_143_1001
*2274 FILLER_143_104
*2275 FILLER_143_120
*2276 FILLER_143_124
*2277 FILLER_143_1815
*2278 FILLER_143_1879
*2279 FILLER_143_1885
*2280 FILLER_143_1917
*2281 FILLER_143_1933
*2282 FILLER_143_1937
*2283 FILLER_143_2
*2284 FILLER_143_66
*2285 FILLER_143_72
*2286 FILLER_143_937
*2287 FILLER_144_1000
*2288 FILLER_144_1002
*2289 FILLER_144_101
*2290 FILLER_144_107
*2291 FILLER_144_123
*2292 FILLER_144_1815
*2293 FILLER_144_1847
*2294 FILLER_144_1850
*2295 FILLER_144_1914
*2296 FILLER_144_1920
*2297 FILLER_144_1936
*2298 FILLER_144_2
*2299 FILLER_144_34
*2300 FILLER_144_37
*2301 FILLER_144_937
*2302 FILLER_144_969
*2303 FILLER_144_972
*2304 FILLER_144_988
*2305 FILLER_144_996
*2306 FILLER_145_1001
*2307 FILLER_145_104
*2308 FILLER_145_120
*2309 FILLER_145_124
*2310 FILLER_145_1815
*2311 FILLER_145_1879
*2312 FILLER_145_1885
*2313 FILLER_145_1917
*2314 FILLER_145_1933
*2315 FILLER_145_1937
*2316 FILLER_145_2
*2317 FILLER_145_66
*2318 FILLER_145_72
*2319 FILLER_145_937
*2320 FILLER_146_1000
*2321 FILLER_146_1002
*2322 FILLER_146_101
*2323 FILLER_146_107
*2324 FILLER_146_123
*2325 FILLER_146_1815
*2326 FILLER_146_1847
*2327 FILLER_146_1850
*2328 FILLER_146_1914
*2329 FILLER_146_1920
*2330 FILLER_146_1936
*2331 FILLER_146_2
*2332 FILLER_146_34
*2333 FILLER_146_37
*2334 FILLER_146_937
*2335 FILLER_146_969
*2336 FILLER_146_972
*2337 FILLER_146_988
*2338 FILLER_146_996
*2339 FILLER_147_1001
*2340 FILLER_147_104
*2341 FILLER_147_120
*2342 FILLER_147_124
*2343 FILLER_147_1815
*2344 FILLER_147_1879
*2345 FILLER_147_1885
*2346 FILLER_147_1917
*2347 FILLER_147_1933
*2348 FILLER_147_1937
*2349 FILLER_147_2
*2350 FILLER_147_66
*2351 FILLER_147_72
*2352 FILLER_147_937
*2353 FILLER_148_1000
*2354 FILLER_148_1002
*2355 FILLER_148_101
*2356 FILLER_148_107
*2357 FILLER_148_123
*2358 FILLER_148_1815
*2359 FILLER_148_1847
*2360 FILLER_148_1850
*2361 FILLER_148_1914
*2362 FILLER_148_1920
*2363 FILLER_148_1936
*2364 FILLER_148_2
*2365 FILLER_148_34
*2366 FILLER_148_37
*2367 FILLER_148_937
*2368 FILLER_148_969
*2369 FILLER_148_972
*2370 FILLER_148_988
*2371 FILLER_148_996
*2372 FILLER_149_1001
*2373 FILLER_149_104
*2374 FILLER_149_120
*2375 FILLER_149_124
*2376 FILLER_149_1815
*2377 FILLER_149_1879
*2378 FILLER_149_1885
*2379 FILLER_149_1917
*2380 FILLER_149_1933
*2381 FILLER_149_1937
*2382 FILLER_149_2
*2383 FILLER_149_66
*2384 FILLER_149_72
*2385 FILLER_149_937
*2386 FILLER_14_101
*2387 FILLER_14_107
*2388 FILLER_14_123
*2389 FILLER_14_1815
*2390 FILLER_14_1847
*2391 FILLER_14_1850
*2392 FILLER_14_1914
*2393 FILLER_14_1920
*2394 FILLER_14_1936
*2395 FILLER_14_2
*2396 FILLER_14_34
*2397 FILLER_14_37
*2398 FILLER_14_972
*2399 FILLER_150_1000
*2400 FILLER_150_1002
*2401 FILLER_150_101
*2402 FILLER_150_107
*2403 FILLER_150_123
*2404 FILLER_150_1815
*2405 FILLER_150_1847
*2406 FILLER_150_1850
*2407 FILLER_150_1914
*2408 FILLER_150_1920
*2409 FILLER_150_1936
*2410 FILLER_150_2
*2411 FILLER_150_34
*2412 FILLER_150_37
*2413 FILLER_150_937
*2414 FILLER_150_969
*2415 FILLER_150_972
*2416 FILLER_150_988
*2417 FILLER_150_996
*2418 FILLER_151_1001
*2419 FILLER_151_104
*2420 FILLER_151_120
*2421 FILLER_151_124
*2422 FILLER_151_1815
*2423 FILLER_151_1879
*2424 FILLER_151_1885
*2425 FILLER_151_1917
*2426 FILLER_151_1933
*2427 FILLER_151_1937
*2428 FILLER_151_2
*2429 FILLER_151_66
*2430 FILLER_151_72
*2431 FILLER_151_937
*2432 FILLER_152_1000
*2433 FILLER_152_1002
*2434 FILLER_152_101
*2435 FILLER_152_107
*2436 FILLER_152_123
*2437 FILLER_152_1815
*2438 FILLER_152_1847
*2439 FILLER_152_1850
*2440 FILLER_152_1914
*2441 FILLER_152_1920
*2442 FILLER_152_1936
*2443 FILLER_152_2
*2444 FILLER_152_34
*2445 FILLER_152_37
*2446 FILLER_152_937
*2447 FILLER_152_969
*2448 FILLER_152_972
*2449 FILLER_152_988
*2450 FILLER_152_996
*2451 FILLER_153_1001
*2452 FILLER_153_104
*2453 FILLER_153_120
*2454 FILLER_153_124
*2455 FILLER_153_1815
*2456 FILLER_153_1879
*2457 FILLER_153_1885
*2458 FILLER_153_1917
*2459 FILLER_153_1933
*2460 FILLER_153_1937
*2461 FILLER_153_2
*2462 FILLER_153_66
*2463 FILLER_153_72
*2464 FILLER_153_937
*2465 FILLER_154_1000
*2466 FILLER_154_1002
*2467 FILLER_154_101
*2468 FILLER_154_107
*2469 FILLER_154_123
*2470 FILLER_154_1815
*2471 FILLER_154_1847
*2472 FILLER_154_1850
*2473 FILLER_154_1914
*2474 FILLER_154_1920
*2475 FILLER_154_1936
*2476 FILLER_154_2
*2477 FILLER_154_34
*2478 FILLER_154_37
*2479 FILLER_154_937
*2480 FILLER_154_969
*2481 FILLER_154_972
*2482 FILLER_154_988
*2483 FILLER_154_996
*2484 FILLER_155_1001
*2485 FILLER_155_104
*2486 FILLER_155_120
*2487 FILLER_155_124
*2488 FILLER_155_1815
*2489 FILLER_155_1879
*2490 FILLER_155_1885
*2491 FILLER_155_1917
*2492 FILLER_155_1933
*2493 FILLER_155_1937
*2494 FILLER_155_2
*2495 FILLER_155_66
*2496 FILLER_155_72
*2497 FILLER_155_937
*2498 FILLER_156_1000
*2499 FILLER_156_1002
*2500 FILLER_156_101
*2501 FILLER_156_107
*2502 FILLER_156_123
*2503 FILLER_156_1815
*2504 FILLER_156_1847
*2505 FILLER_156_1850
*2506 FILLER_156_1914
*2507 FILLER_156_1920
*2508 FILLER_156_1936
*2509 FILLER_156_2
*2510 FILLER_156_34
*2511 FILLER_156_37
*2512 FILLER_156_937
*2513 FILLER_156_969
*2514 FILLER_156_972
*2515 FILLER_156_988
*2516 FILLER_156_996
*2517 FILLER_157_1001
*2518 FILLER_157_104
*2519 FILLER_157_120
*2520 FILLER_157_124
*2521 FILLER_157_1815
*2522 FILLER_157_1879
*2523 FILLER_157_1885
*2524 FILLER_157_1917
*2525 FILLER_157_1933
*2526 FILLER_157_1937
*2527 FILLER_157_2
*2528 FILLER_157_66
*2529 FILLER_157_72
*2530 FILLER_157_937
*2531 FILLER_158_1000
*2532 FILLER_158_1002
*2533 FILLER_158_101
*2534 FILLER_158_107
*2535 FILLER_158_123
*2536 FILLER_158_1815
*2537 FILLER_158_1847
*2538 FILLER_158_1850
*2539 FILLER_158_1914
*2540 FILLER_158_1920
*2541 FILLER_158_1936
*2542 FILLER_158_2
*2543 FILLER_158_34
*2544 FILLER_158_37
*2545 FILLER_158_937
*2546 FILLER_158_969
*2547 FILLER_158_972
*2548 FILLER_158_988
*2549 FILLER_158_996
*2550 FILLER_159_1001
*2551 FILLER_159_104
*2552 FILLER_159_120
*2553 FILLER_159_124
*2554 FILLER_159_1815
*2555 FILLER_159_1879
*2556 FILLER_159_1885
*2557 FILLER_159_1917
*2558 FILLER_159_1933
*2559 FILLER_159_1937
*2560 FILLER_159_2
*2561 FILLER_159_66
*2562 FILLER_159_72
*2563 FILLER_159_937
*2564 FILLER_15_104
*2565 FILLER_15_120
*2566 FILLER_15_124
*2567 FILLER_15_1815
*2568 FILLER_15_1879
*2569 FILLER_15_1885
*2570 FILLER_15_1917
*2571 FILLER_15_1933
*2572 FILLER_15_1937
*2573 FILLER_15_2
*2574 FILLER_15_66
*2575 FILLER_15_72
*2576 FILLER_15_953
*2577 FILLER_15_955
*2578 FILLER_15_990
*2579 FILLER_160_1000
*2580 FILLER_160_1002
*2581 FILLER_160_101
*2582 FILLER_160_107
*2583 FILLER_160_123
*2584 FILLER_160_1815
*2585 FILLER_160_1847
*2586 FILLER_160_1850
*2587 FILLER_160_1914
*2588 FILLER_160_1920
*2589 FILLER_160_1936
*2590 FILLER_160_2
*2591 FILLER_160_34
*2592 FILLER_160_37
*2593 FILLER_160_937
*2594 FILLER_160_969
*2595 FILLER_160_972
*2596 FILLER_160_988
*2597 FILLER_160_996
*2598 FILLER_161_1001
*2599 FILLER_161_104
*2600 FILLER_161_120
*2601 FILLER_161_124
*2602 FILLER_161_1815
*2603 FILLER_161_1879
*2604 FILLER_161_1885
*2605 FILLER_161_1917
*2606 FILLER_161_1933
*2607 FILLER_161_1937
*2608 FILLER_161_2
*2609 FILLER_161_66
*2610 FILLER_161_72
*2611 FILLER_161_937
*2612 FILLER_162_1000
*2613 FILLER_162_1002
*2614 FILLER_162_101
*2615 FILLER_162_107
*2616 FILLER_162_123
*2617 FILLER_162_1815
*2618 FILLER_162_1847
*2619 FILLER_162_1850
*2620 FILLER_162_1914
*2621 FILLER_162_1920
*2622 FILLER_162_1936
*2623 FILLER_162_2
*2624 FILLER_162_34
*2625 FILLER_162_37
*2626 FILLER_162_937
*2627 FILLER_162_969
*2628 FILLER_162_972
*2629 FILLER_162_988
*2630 FILLER_162_996
*2631 FILLER_163_1001
*2632 FILLER_163_104
*2633 FILLER_163_120
*2634 FILLER_163_124
*2635 FILLER_163_1815
*2636 FILLER_163_1879
*2637 FILLER_163_1885
*2638 FILLER_163_1917
*2639 FILLER_163_1933
*2640 FILLER_163_1937
*2641 FILLER_163_2
*2642 FILLER_163_66
*2643 FILLER_163_72
*2644 FILLER_163_937
*2645 FILLER_164_1000
*2646 FILLER_164_1002
*2647 FILLER_164_101
*2648 FILLER_164_107
*2649 FILLER_164_123
*2650 FILLER_164_1815
*2651 FILLER_164_1847
*2652 FILLER_164_1850
*2653 FILLER_164_1914
*2654 FILLER_164_1920
*2655 FILLER_164_1936
*2656 FILLER_164_2
*2657 FILLER_164_34
*2658 FILLER_164_37
*2659 FILLER_164_937
*2660 FILLER_164_969
*2661 FILLER_164_972
*2662 FILLER_164_988
*2663 FILLER_164_996
*2664 FILLER_165_1001
*2665 FILLER_165_104
*2666 FILLER_165_120
*2667 FILLER_165_124
*2668 FILLER_165_1815
*2669 FILLER_165_1879
*2670 FILLER_165_1885
*2671 FILLER_165_1917
*2672 FILLER_165_1933
*2673 FILLER_165_1937
*2674 FILLER_165_2
*2675 FILLER_165_66
*2676 FILLER_165_72
*2677 FILLER_165_937
*2678 FILLER_166_1000
*2679 FILLER_166_1002
*2680 FILLER_166_101
*2681 FILLER_166_107
*2682 FILLER_166_123
*2683 FILLER_166_1815
*2684 FILLER_166_1847
*2685 FILLER_166_1850
*2686 FILLER_166_1914
*2687 FILLER_166_1920
*2688 FILLER_166_1936
*2689 FILLER_166_2
*2690 FILLER_166_34
*2691 FILLER_166_37
*2692 FILLER_166_937
*2693 FILLER_166_969
*2694 FILLER_166_972
*2695 FILLER_166_988
*2696 FILLER_166_996
*2697 FILLER_167_1001
*2698 FILLER_167_104
*2699 FILLER_167_120
*2700 FILLER_167_124
*2701 FILLER_167_1815
*2702 FILLER_167_1879
*2703 FILLER_167_1885
*2704 FILLER_167_1917
*2705 FILLER_167_1933
*2706 FILLER_167_1937
*2707 FILLER_167_2
*2708 FILLER_167_66
*2709 FILLER_167_72
*2710 FILLER_167_937
*2711 FILLER_168_1000
*2712 FILLER_168_1002
*2713 FILLER_168_101
*2714 FILLER_168_107
*2715 FILLER_168_123
*2716 FILLER_168_1815
*2717 FILLER_168_1847
*2718 FILLER_168_1850
*2719 FILLER_168_1914
*2720 FILLER_168_1920
*2721 FILLER_168_1936
*2722 FILLER_168_2
*2723 FILLER_168_34
*2724 FILLER_168_37
*2725 FILLER_168_937
*2726 FILLER_168_969
*2727 FILLER_168_972
*2728 FILLER_168_988
*2729 FILLER_168_996
*2730 FILLER_169_1001
*2731 FILLER_169_104
*2732 FILLER_169_120
*2733 FILLER_169_124
*2734 FILLER_169_1815
*2735 FILLER_169_1879
*2736 FILLER_169_1885
*2737 FILLER_169_1917
*2738 FILLER_169_1933
*2739 FILLER_169_1937
*2740 FILLER_169_2
*2741 FILLER_169_66
*2742 FILLER_169_72
*2743 FILLER_169_937
*2744 FILLER_16_101
*2745 FILLER_16_107
*2746 FILLER_16_123
*2747 FILLER_16_1815
*2748 FILLER_16_1847
*2749 FILLER_16_1850
*2750 FILLER_16_1914
*2751 FILLER_16_1920
*2752 FILLER_16_1936
*2753 FILLER_16_2
*2754 FILLER_16_34
*2755 FILLER_16_37
*2756 FILLER_16_955
*2757 FILLER_16_963
*2758 FILLER_16_976
*2759 FILLER_170_1000
*2760 FILLER_170_1002
*2761 FILLER_170_101
*2762 FILLER_170_107
*2763 FILLER_170_123
*2764 FILLER_170_1815
*2765 FILLER_170_1847
*2766 FILLER_170_1850
*2767 FILLER_170_1914
*2768 FILLER_170_1920
*2769 FILLER_170_1936
*2770 FILLER_170_2
*2771 FILLER_170_34
*2772 FILLER_170_37
*2773 FILLER_170_937
*2774 FILLER_170_969
*2775 FILLER_170_972
*2776 FILLER_170_988
*2777 FILLER_170_996
*2778 FILLER_171_1001
*2779 FILLER_171_104
*2780 FILLER_171_120
*2781 FILLER_171_124
*2782 FILLER_171_1815
*2783 FILLER_171_1879
*2784 FILLER_171_1885
*2785 FILLER_171_1917
*2786 FILLER_171_1933
*2787 FILLER_171_1937
*2788 FILLER_171_2
*2789 FILLER_171_66
*2790 FILLER_171_72
*2791 FILLER_171_937
*2792 FILLER_172_1000
*2793 FILLER_172_1002
*2794 FILLER_172_101
*2795 FILLER_172_107
*2796 FILLER_172_123
*2797 FILLER_172_1815
*2798 FILLER_172_1847
*2799 FILLER_172_1850
*2800 FILLER_172_1914
*2801 FILLER_172_1920
*2802 FILLER_172_1936
*2803 FILLER_172_2
*2804 FILLER_172_34
*2805 FILLER_172_37
*2806 FILLER_172_937
*2807 FILLER_172_969
*2808 FILLER_172_972
*2809 FILLER_172_988
*2810 FILLER_172_996
*2811 FILLER_173_1001
*2812 FILLER_173_104
*2813 FILLER_173_120
*2814 FILLER_173_124
*2815 FILLER_173_1815
*2816 FILLER_173_1879
*2817 FILLER_173_1885
*2818 FILLER_173_1917
*2819 FILLER_173_1933
*2820 FILLER_173_1937
*2821 FILLER_173_2
*2822 FILLER_173_66
*2823 FILLER_173_72
*2824 FILLER_173_937
*2825 FILLER_174_1000
*2826 FILLER_174_1002
*2827 FILLER_174_101
*2828 FILLER_174_107
*2829 FILLER_174_123
*2830 FILLER_174_1815
*2831 FILLER_174_1847
*2832 FILLER_174_1850
*2833 FILLER_174_1914
*2834 FILLER_174_1920
*2835 FILLER_174_1936
*2836 FILLER_174_2
*2837 FILLER_174_34
*2838 FILLER_174_37
*2839 FILLER_174_937
*2840 FILLER_174_969
*2841 FILLER_174_972
*2842 FILLER_174_988
*2843 FILLER_174_996
*2844 FILLER_175_1001
*2845 FILLER_175_104
*2846 FILLER_175_120
*2847 FILLER_175_124
*2848 FILLER_175_1815
*2849 FILLER_175_1879
*2850 FILLER_175_1885
*2851 FILLER_175_1917
*2852 FILLER_175_1933
*2853 FILLER_175_1937
*2854 FILLER_175_2
*2855 FILLER_175_66
*2856 FILLER_175_72
*2857 FILLER_175_937
*2858 FILLER_176_1000
*2859 FILLER_176_1002
*2860 FILLER_176_101
*2861 FILLER_176_107
*2862 FILLER_176_123
*2863 FILLER_176_1815
*2864 FILLER_176_1847
*2865 FILLER_176_1850
*2866 FILLER_176_1914
*2867 FILLER_176_1920
*2868 FILLER_176_1936
*2869 FILLER_176_2
*2870 FILLER_176_34
*2871 FILLER_176_37
*2872 FILLER_176_937
*2873 FILLER_176_969
*2874 FILLER_176_972
*2875 FILLER_176_988
*2876 FILLER_176_996
*2877 FILLER_177_1001
*2878 FILLER_177_104
*2879 FILLER_177_120
*2880 FILLER_177_124
*2881 FILLER_177_1815
*2882 FILLER_177_1879
*2883 FILLER_177_1885
*2884 FILLER_177_1917
*2885 FILLER_177_1933
*2886 FILLER_177_1937
*2887 FILLER_177_2
*2888 FILLER_177_66
*2889 FILLER_177_72
*2890 FILLER_177_937
*2891 FILLER_178_1000
*2892 FILLER_178_1002
*2893 FILLER_178_101
*2894 FILLER_178_107
*2895 FILLER_178_123
*2896 FILLER_178_1815
*2897 FILLER_178_1847
*2898 FILLER_178_1850
*2899 FILLER_178_1914
*2900 FILLER_178_1920
*2901 FILLER_178_1936
*2902 FILLER_178_2
*2903 FILLER_178_34
*2904 FILLER_178_37
*2905 FILLER_178_937
*2906 FILLER_178_969
*2907 FILLER_178_972
*2908 FILLER_178_988
*2909 FILLER_178_996
*2910 FILLER_179_1001
*2911 FILLER_179_104
*2912 FILLER_179_120
*2913 FILLER_179_124
*2914 FILLER_179_1815
*2915 FILLER_179_1879
*2916 FILLER_179_1885
*2917 FILLER_179_1917
*2918 FILLER_179_1933
*2919 FILLER_179_1937
*2920 FILLER_179_2
*2921 FILLER_179_66
*2922 FILLER_179_72
*2923 FILLER_179_937
*2924 FILLER_17_104
*2925 FILLER_17_120
*2926 FILLER_17_124
*2927 FILLER_17_1815
*2928 FILLER_17_1879
*2929 FILLER_17_1885
*2930 FILLER_17_1917
*2931 FILLER_17_1933
*2932 FILLER_17_1937
*2933 FILLER_17_2
*2934 FILLER_17_66
*2935 FILLER_17_72
*2936 FILLER_17_949
*2937 FILLER_180_1000
*2938 FILLER_180_1002
*2939 FILLER_180_101
*2940 FILLER_180_107
*2941 FILLER_180_123
*2942 FILLER_180_1815
*2943 FILLER_180_1847
*2944 FILLER_180_1850
*2945 FILLER_180_1914
*2946 FILLER_180_1920
*2947 FILLER_180_1936
*2948 FILLER_180_2
*2949 FILLER_180_34
*2950 FILLER_180_37
*2951 FILLER_180_937
*2952 FILLER_180_969
*2953 FILLER_180_972
*2954 FILLER_180_988
*2955 FILLER_180_996
*2956 FILLER_181_1001
*2957 FILLER_181_104
*2958 FILLER_181_120
*2959 FILLER_181_124
*2960 FILLER_181_1815
*2961 FILLER_181_1879
*2962 FILLER_181_1885
*2963 FILLER_181_1917
*2964 FILLER_181_1933
*2965 FILLER_181_1937
*2966 FILLER_181_2
*2967 FILLER_181_66
*2968 FILLER_181_72
*2969 FILLER_181_937
*2970 FILLER_182_1000
*2971 FILLER_182_1002
*2972 FILLER_182_101
*2973 FILLER_182_107
*2974 FILLER_182_123
*2975 FILLER_182_1815
*2976 FILLER_182_1847
*2977 FILLER_182_1850
*2978 FILLER_182_1914
*2979 FILLER_182_1920
*2980 FILLER_182_1936
*2981 FILLER_182_2
*2982 FILLER_182_34
*2983 FILLER_182_37
*2984 FILLER_182_937
*2985 FILLER_182_969
*2986 FILLER_182_972
*2987 FILLER_182_988
*2988 FILLER_182_996
*2989 FILLER_183_1001
*2990 FILLER_183_104
*2991 FILLER_183_120
*2992 FILLER_183_124
*2993 FILLER_183_1815
*2994 FILLER_183_1879
*2995 FILLER_183_1885
*2996 FILLER_183_1917
*2997 FILLER_183_1933
*2998 FILLER_183_1937
*2999 FILLER_183_2
*3000 FILLER_183_66
*3001 FILLER_183_72
*3002 FILLER_183_937
*3003 FILLER_184_1000
*3004 FILLER_184_1002
*3005 FILLER_184_101
*3006 FILLER_184_107
*3007 FILLER_184_123
*3008 FILLER_184_1815
*3009 FILLER_184_1847
*3010 FILLER_184_1850
*3011 FILLER_184_1914
*3012 FILLER_184_1920
*3013 FILLER_184_1936
*3014 FILLER_184_2
*3015 FILLER_184_34
*3016 FILLER_184_37
*3017 FILLER_184_937
*3018 FILLER_184_969
*3019 FILLER_184_972
*3020 FILLER_184_988
*3021 FILLER_184_996
*3022 FILLER_185_1001
*3023 FILLER_185_104
*3024 FILLER_185_120
*3025 FILLER_185_124
*3026 FILLER_185_1815
*3027 FILLER_185_1879
*3028 FILLER_185_1885
*3029 FILLER_185_1917
*3030 FILLER_185_1933
*3031 FILLER_185_1937
*3032 FILLER_185_2
*3033 FILLER_185_66
*3034 FILLER_185_72
*3035 FILLER_185_937
*3036 FILLER_186_1000
*3037 FILLER_186_1002
*3038 FILLER_186_101
*3039 FILLER_186_107
*3040 FILLER_186_123
*3041 FILLER_186_1815
*3042 FILLER_186_1847
*3043 FILLER_186_1850
*3044 FILLER_186_1914
*3045 FILLER_186_1920
*3046 FILLER_186_1936
*3047 FILLER_186_2
*3048 FILLER_186_34
*3049 FILLER_186_37
*3050 FILLER_186_937
*3051 FILLER_186_969
*3052 FILLER_186_972
*3053 FILLER_186_988
*3054 FILLER_186_996
*3055 FILLER_187_1001
*3056 FILLER_187_104
*3057 FILLER_187_120
*3058 FILLER_187_124
*3059 FILLER_187_1815
*3060 FILLER_187_1879
*3061 FILLER_187_1885
*3062 FILLER_187_1917
*3063 FILLER_187_1933
*3064 FILLER_187_1937
*3065 FILLER_187_2
*3066 FILLER_187_66
*3067 FILLER_187_72
*3068 FILLER_187_937
*3069 FILLER_188_1000
*3070 FILLER_188_1002
*3071 FILLER_188_101
*3072 FILLER_188_107
*3073 FILLER_188_123
*3074 FILLER_188_1815
*3075 FILLER_188_1847
*3076 FILLER_188_1850
*3077 FILLER_188_1914
*3078 FILLER_188_1920
*3079 FILLER_188_1936
*3080 FILLER_188_2
*3081 FILLER_188_34
*3082 FILLER_188_37
*3083 FILLER_188_937
*3084 FILLER_188_969
*3085 FILLER_188_972
*3086 FILLER_188_988
*3087 FILLER_188_996
*3088 FILLER_189_1001
*3089 FILLER_189_104
*3090 FILLER_189_120
*3091 FILLER_189_124
*3092 FILLER_189_1815
*3093 FILLER_189_1879
*3094 FILLER_189_1885
*3095 FILLER_189_1917
*3096 FILLER_189_1933
*3097 FILLER_189_1937
*3098 FILLER_189_2
*3099 FILLER_189_66
*3100 FILLER_189_72
*3101 FILLER_189_937
*3102 FILLER_18_1001
*3103 FILLER_18_101
*3104 FILLER_18_107
*3105 FILLER_18_123
*3106 FILLER_18_1815
*3107 FILLER_18_1847
*3108 FILLER_18_1850
*3109 FILLER_18_1914
*3110 FILLER_18_1920
*3111 FILLER_18_1936
*3112 FILLER_18_2
*3113 FILLER_18_34
*3114 FILLER_18_37
*3115 FILLER_18_941
*3116 FILLER_18_957
*3117 FILLER_18_965
*3118 FILLER_18_969
*3119 FILLER_18_972
*3120 FILLER_18_981
*3121 FILLER_18_997
*3122 FILLER_190_1000
*3123 FILLER_190_1002
*3124 FILLER_190_101
*3125 FILLER_190_107
*3126 FILLER_190_123
*3127 FILLER_190_1815
*3128 FILLER_190_1847
*3129 FILLER_190_1850
*3130 FILLER_190_1914
*3131 FILLER_190_1920
*3132 FILLER_190_1936
*3133 FILLER_190_2
*3134 FILLER_190_34
*3135 FILLER_190_37
*3136 FILLER_190_937
*3137 FILLER_190_969
*3138 FILLER_190_972
*3139 FILLER_190_988
*3140 FILLER_190_996
*3141 FILLER_191_1001
*3142 FILLER_191_104
*3143 FILLER_191_120
*3144 FILLER_191_124
*3145 FILLER_191_1815
*3146 FILLER_191_1879
*3147 FILLER_191_1885
*3148 FILLER_191_1917
*3149 FILLER_191_1933
*3150 FILLER_191_1937
*3151 FILLER_191_2
*3152 FILLER_191_66
*3153 FILLER_191_72
*3154 FILLER_191_937
*3155 FILLER_192_1000
*3156 FILLER_192_1002
*3157 FILLER_192_101
*3158 FILLER_192_107
*3159 FILLER_192_123
*3160 FILLER_192_1815
*3161 FILLER_192_1847
*3162 FILLER_192_1850
*3163 FILLER_192_1914
*3164 FILLER_192_1920
*3165 FILLER_192_1936
*3166 FILLER_192_2
*3167 FILLER_192_34
*3168 FILLER_192_37
*3169 FILLER_192_937
*3170 FILLER_192_969
*3171 FILLER_192_972
*3172 FILLER_192_988
*3173 FILLER_192_996
*3174 FILLER_193_1001
*3175 FILLER_193_104
*3176 FILLER_193_120
*3177 FILLER_193_124
*3178 FILLER_193_1815
*3179 FILLER_193_1879
*3180 FILLER_193_1885
*3181 FILLER_193_1917
*3182 FILLER_193_1933
*3183 FILLER_193_1937
*3184 FILLER_193_2
*3185 FILLER_193_66
*3186 FILLER_193_72
*3187 FILLER_193_937
*3188 FILLER_194_1000
*3189 FILLER_194_1002
*3190 FILLER_194_101
*3191 FILLER_194_107
*3192 FILLER_194_123
*3193 FILLER_194_1815
*3194 FILLER_194_1847
*3195 FILLER_194_1850
*3196 FILLER_194_1914
*3197 FILLER_194_1920
*3198 FILLER_194_1936
*3199 FILLER_194_2
*3200 FILLER_194_34
*3201 FILLER_194_37
*3202 FILLER_194_937
*3203 FILLER_194_969
*3204 FILLER_194_972
*3205 FILLER_194_988
*3206 FILLER_194_996
*3207 FILLER_195_1001
*3208 FILLER_195_104
*3209 FILLER_195_120
*3210 FILLER_195_124
*3211 FILLER_195_1815
*3212 FILLER_195_1879
*3213 FILLER_195_1885
*3214 FILLER_195_1917
*3215 FILLER_195_1933
*3216 FILLER_195_1937
*3217 FILLER_195_2
*3218 FILLER_195_66
*3219 FILLER_195_72
*3220 FILLER_195_937
*3221 FILLER_196_1000
*3222 FILLER_196_1002
*3223 FILLER_196_101
*3224 FILLER_196_107
*3225 FILLER_196_123
*3226 FILLER_196_1815
*3227 FILLER_196_1847
*3228 FILLER_196_1850
*3229 FILLER_196_1914
*3230 FILLER_196_1920
*3231 FILLER_196_1936
*3232 FILLER_196_2
*3233 FILLER_196_34
*3234 FILLER_196_37
*3235 FILLER_196_937
*3236 FILLER_196_969
*3237 FILLER_196_972
*3238 FILLER_196_988
*3239 FILLER_196_996
*3240 FILLER_197_1001
*3241 FILLER_197_104
*3242 FILLER_197_120
*3243 FILLER_197_124
*3244 FILLER_197_1815
*3245 FILLER_197_1879
*3246 FILLER_197_1885
*3247 FILLER_197_1917
*3248 FILLER_197_1933
*3249 FILLER_197_1937
*3250 FILLER_197_2
*3251 FILLER_197_66
*3252 FILLER_197_72
*3253 FILLER_197_937
*3254 FILLER_198_1000
*3255 FILLER_198_1002
*3256 FILLER_198_101
*3257 FILLER_198_107
*3258 FILLER_198_123
*3259 FILLER_198_1815
*3260 FILLER_198_1847
*3261 FILLER_198_1850
*3262 FILLER_198_1914
*3263 FILLER_198_1920
*3264 FILLER_198_1936
*3265 FILLER_198_2
*3266 FILLER_198_34
*3267 FILLER_198_37
*3268 FILLER_198_937
*3269 FILLER_198_969
*3270 FILLER_198_972
*3271 FILLER_198_988
*3272 FILLER_198_996
*3273 FILLER_199_1001
*3274 FILLER_199_104
*3275 FILLER_199_120
*3276 FILLER_199_124
*3277 FILLER_199_1815
*3278 FILLER_199_1879
*3279 FILLER_199_1885
*3280 FILLER_199_1917
*3281 FILLER_199_1933
*3282 FILLER_199_1937
*3283 FILLER_199_2
*3284 FILLER_199_66
*3285 FILLER_199_72
*3286 FILLER_199_937
*3287 FILLER_19_104
*3288 FILLER_19_120
*3289 FILLER_19_124
*3290 FILLER_19_1815
*3291 FILLER_19_1879
*3292 FILLER_19_1885
*3293 FILLER_19_1917
*3294 FILLER_19_1933
*3295 FILLER_19_1937
*3296 FILLER_19_2
*3297 FILLER_19_66
*3298 FILLER_19_72
*3299 FILLER_19_945
*3300 FILLER_19_961
*3301 FILLER_19_965
*3302 FILLER_1_1032
*3303 FILLER_1_1034
*3304 FILLER_1_1122
*3305 FILLER_1_1126
*3306 FILLER_1_1128
*3307 FILLER_1_1179
*3308 FILLER_1_1187
*3309 FILLER_1_1189
*3310 FILLER_1_1192
*3311 FILLER_1_1224
*3312 FILLER_1_1262
*3313 FILLER_1_1326
*3314 FILLER_1_1332
*3315 FILLER_1_136
*3316 FILLER_1_1396
*3317 FILLER_1_142
*3318 FILLER_1_1436
*3319 FILLER_1_1468
*3320 FILLER_1_1472
*3321 FILLER_1_1536
*3322 FILLER_1_1542
*3323 FILLER_1_1574
*3324 FILLER_1_1609
*3325 FILLER_1_1612
*3326 FILLER_1_1644
*3327 FILLER_1_1682
*3328 FILLER_1_1714
*3329 FILLER_1_1752
*3330 FILLER_1_1816
*3331 FILLER_1_1822
*3332 FILLER_1_1886
*3333 FILLER_1_1892
*3334 FILLER_1_1924
*3335 FILLER_1_1932
*3336 FILLER_1_1936
*3337 FILLER_1_2
*3338 FILLER_1_206
*3339 FILLER_1_212
*3340 FILLER_1_244
*3341 FILLER_1_282
*3342 FILLER_1_346
*3343 FILLER_1_352
*3344 FILLER_1_416
*3345 FILLER_1_492
*3346 FILLER_1_556
*3347 FILLER_1_562
*3348 FILLER_1_626
*3349 FILLER_1_632
*3350 FILLER_1_66
*3351 FILLER_1_696
*3352 FILLER_1_702
*3353 FILLER_1_72
*3354 FILLER_1_766
*3355 FILLER_1_982
*3356 FILLER_200_1000
*3357 FILLER_200_1002
*3358 FILLER_200_101
*3359 FILLER_200_107
*3360 FILLER_200_123
*3361 FILLER_200_1815
*3362 FILLER_200_1847
*3363 FILLER_200_1850
*3364 FILLER_200_1914
*3365 FILLER_200_1920
*3366 FILLER_200_1936
*3367 FILLER_200_2
*3368 FILLER_200_34
*3369 FILLER_200_37
*3370 FILLER_200_937
*3371 FILLER_200_969
*3372 FILLER_200_972
*3373 FILLER_200_988
*3374 FILLER_200_996
*3375 FILLER_201_1001
*3376 FILLER_201_104
*3377 FILLER_201_120
*3378 FILLER_201_124
*3379 FILLER_201_1815
*3380 FILLER_201_1879
*3381 FILLER_201_1885
*3382 FILLER_201_1917
*3383 FILLER_201_1933
*3384 FILLER_201_1937
*3385 FILLER_201_2
*3386 FILLER_201_66
*3387 FILLER_201_72
*3388 FILLER_201_937
*3389 FILLER_202_1000
*3390 FILLER_202_1002
*3391 FILLER_202_101
*3392 FILLER_202_107
*3393 FILLER_202_123
*3394 FILLER_202_1815
*3395 FILLER_202_1847
*3396 FILLER_202_1850
*3397 FILLER_202_1914
*3398 FILLER_202_1920
*3399 FILLER_202_1936
*3400 FILLER_202_2
*3401 FILLER_202_34
*3402 FILLER_202_37
*3403 FILLER_202_937
*3404 FILLER_202_969
*3405 FILLER_202_972
*3406 FILLER_202_988
*3407 FILLER_202_996
*3408 FILLER_203_1001
*3409 FILLER_203_104
*3410 FILLER_203_120
*3411 FILLER_203_124
*3412 FILLER_203_1815
*3413 FILLER_203_1879
*3414 FILLER_203_1885
*3415 FILLER_203_1917
*3416 FILLER_203_1933
*3417 FILLER_203_1937
*3418 FILLER_203_2
*3419 FILLER_203_66
*3420 FILLER_203_72
*3421 FILLER_203_937
*3422 FILLER_204_1000
*3423 FILLER_204_1002
*3424 FILLER_204_101
*3425 FILLER_204_107
*3426 FILLER_204_123
*3427 FILLER_204_1815
*3428 FILLER_204_1847
*3429 FILLER_204_1850
*3430 FILLER_204_1914
*3431 FILLER_204_1920
*3432 FILLER_204_1936
*3433 FILLER_204_2
*3434 FILLER_204_34
*3435 FILLER_204_37
*3436 FILLER_204_937
*3437 FILLER_204_969
*3438 FILLER_204_972
*3439 FILLER_204_988
*3440 FILLER_204_996
*3441 FILLER_205_1001
*3442 FILLER_205_104
*3443 FILLER_205_120
*3444 FILLER_205_124
*3445 FILLER_205_1815
*3446 FILLER_205_1879
*3447 FILLER_205_1885
*3448 FILLER_205_1917
*3449 FILLER_205_1933
*3450 FILLER_205_1937
*3451 FILLER_205_2
*3452 FILLER_205_66
*3453 FILLER_205_72
*3454 FILLER_205_937
*3455 FILLER_206_1000
*3456 FILLER_206_1002
*3457 FILLER_206_101
*3458 FILLER_206_107
*3459 FILLER_206_123
*3460 FILLER_206_1815
*3461 FILLER_206_1847
*3462 FILLER_206_1850
*3463 FILLER_206_1914
*3464 FILLER_206_1920
*3465 FILLER_206_1936
*3466 FILLER_206_2
*3467 FILLER_206_34
*3468 FILLER_206_37
*3469 FILLER_206_937
*3470 FILLER_206_969
*3471 FILLER_206_972
*3472 FILLER_206_988
*3473 FILLER_206_996
*3474 FILLER_207_1001
*3475 FILLER_207_104
*3476 FILLER_207_120
*3477 FILLER_207_124
*3478 FILLER_207_1815
*3479 FILLER_207_1879
*3480 FILLER_207_1885
*3481 FILLER_207_1917
*3482 FILLER_207_1933
*3483 FILLER_207_1937
*3484 FILLER_207_2
*3485 FILLER_207_66
*3486 FILLER_207_72
*3487 FILLER_207_937
*3488 FILLER_208_1022
*3489 FILLER_208_104
*3490 FILLER_208_1056
*3491 FILLER_208_1090
*3492 FILLER_208_1124
*3493 FILLER_208_1158
*3494 FILLER_208_1192
*3495 FILLER_208_1226
*3496 FILLER_208_1260
*3497 FILLER_208_1294
*3498 FILLER_208_1328
*3499 FILLER_208_1362
*3500 FILLER_208_138
*3501 FILLER_208_1396
*3502 FILLER_208_1430
*3503 FILLER_208_1464
*3504 FILLER_208_1498
*3505 FILLER_208_1532
*3506 FILLER_208_1566
*3507 FILLER_208_1600
*3508 FILLER_208_1634
*3509 FILLER_208_1668
*3510 FILLER_208_1702
*3511 FILLER_208_172
*3512 FILLER_208_1736
*3513 FILLER_208_1770
*3514 FILLER_208_1804
*3515 FILLER_208_1838
*3516 FILLER_208_1872
*3517 FILLER_208_1906
*3518 FILLER_208_2
*3519 FILLER_208_206
*3520 FILLER_208_240
*3521 FILLER_208_274
*3522 FILLER_208_308
*3523 FILLER_208_342
*3524 FILLER_208_36
*3525 FILLER_208_376
*3526 FILLER_208_410
*3527 FILLER_208_444
*3528 FILLER_208_478
*3529 FILLER_208_512
*3530 FILLER_208_546
*3531 FILLER_208_580
*3532 FILLER_208_614
*3533 FILLER_208_648
*3534 FILLER_208_682
*3535 FILLER_208_70
*3536 FILLER_208_716
*3537 FILLER_208_750
*3538 FILLER_208_784
*3539 FILLER_208_818
*3540 FILLER_208_852
*3541 FILLER_208_886
*3542 FILLER_208_920
*3543 FILLER_208_954
*3544 FILLER_208_988
*3545 FILLER_209_1046
*3546 FILLER_209_1052
*3547 FILLER_209_1116
*3548 FILLER_209_1122
*3549 FILLER_209_1186
*3550 FILLER_209_1192
*3551 FILLER_209_1256
*3552 FILLER_209_1262
*3553 FILLER_209_1326
*3554 FILLER_209_1332
*3555 FILLER_209_136
*3556 FILLER_209_1396
*3557 FILLER_209_1402
*3558 FILLER_209_142
*3559 FILLER_209_1466
*3560 FILLER_209_1472
*3561 FILLER_209_1536
*3562 FILLER_209_1542
*3563 FILLER_209_1606
*3564 FILLER_209_1612
*3565 FILLER_209_1676
*3566 FILLER_209_1682
*3567 FILLER_209_1746
*3568 FILLER_209_1752
*3569 FILLER_209_1816
*3570 FILLER_209_1822
*3571 FILLER_209_1886
*3572 FILLER_209_1892
*3573 FILLER_209_1924
*3574 FILLER_209_1932
*3575 FILLER_209_1936
*3576 FILLER_209_2
*3577 FILLER_209_206
*3578 FILLER_209_212
*3579 FILLER_209_276
*3580 FILLER_209_282
*3581 FILLER_209_346
*3582 FILLER_209_352
*3583 FILLER_209_416
*3584 FILLER_209_422
*3585 FILLER_209_486
*3586 FILLER_209_492
*3587 FILLER_209_556
*3588 FILLER_209_562
*3589 FILLER_209_626
*3590 FILLER_209_632
*3591 FILLER_209_66
*3592 FILLER_209_696
*3593 FILLER_209_702
*3594 FILLER_209_72
*3595 FILLER_209_766
*3596 FILLER_209_772
*3597 FILLER_209_836
*3598 FILLER_209_842
*3599 FILLER_209_906
*3600 FILLER_209_912
*3601 FILLER_209_976
*3602 FILLER_209_982
*3603 FILLER_20_1000
*3604 FILLER_20_1002
*3605 FILLER_20_101
*3606 FILLER_20_107
*3607 FILLER_20_123
*3608 FILLER_20_1815
*3609 FILLER_20_1847
*3610 FILLER_20_1850
*3611 FILLER_20_1914
*3612 FILLER_20_1920
*3613 FILLER_20_1936
*3614 FILLER_20_2
*3615 FILLER_20_34
*3616 FILLER_20_37
*3617 FILLER_20_952
*3618 FILLER_20_956
*3619 FILLER_20_972
*3620 FILLER_20_984
*3621 FILLER_210_101
*3622 FILLER_210_1011
*3623 FILLER_210_1017
*3624 FILLER_210_107
*3625 FILLER_210_1081
*3626 FILLER_210_1087
*3627 FILLER_210_1151
*3628 FILLER_210_1157
*3629 FILLER_210_1221
*3630 FILLER_210_1227
*3631 FILLER_210_1291
*3632 FILLER_210_1297
*3633 FILLER_210_1361
*3634 FILLER_210_1367
*3635 FILLER_210_1431
*3636 FILLER_210_1437
*3637 FILLER_210_1501
*3638 FILLER_210_1507
*3639 FILLER_210_1571
*3640 FILLER_210_1577
*3641 FILLER_210_1641
*3642 FILLER_210_1647
*3643 FILLER_210_171
*3644 FILLER_210_1711
*3645 FILLER_210_1717
*3646 FILLER_210_177
*3647 FILLER_210_1781
*3648 FILLER_210_1787
*3649 FILLER_210_1851
*3650 FILLER_210_1857
*3651 FILLER_210_1921
*3652 FILLER_210_1927
*3653 FILLER_210_1935
*3654 FILLER_210_1937
*3655 FILLER_210_2
*3656 FILLER_210_241
*3657 FILLER_210_247
*3658 FILLER_210_311
*3659 FILLER_210_317
*3660 FILLER_210_34
*3661 FILLER_210_37
*3662 FILLER_210_381
*3663 FILLER_210_387
*3664 FILLER_210_451
*3665 FILLER_210_457
*3666 FILLER_210_521
*3667 FILLER_210_527
*3668 FILLER_210_591
*3669 FILLER_210_597
*3670 FILLER_210_661
*3671 FILLER_210_667
*3672 FILLER_210_731
*3673 FILLER_210_737
*3674 FILLER_210_801
*3675 FILLER_210_807
*3676 FILLER_210_871
*3677 FILLER_210_877
*3678 FILLER_210_941
*3679 FILLER_210_947
*3680 FILLER_211_1046
*3681 FILLER_211_1052
*3682 FILLER_211_1116
*3683 FILLER_211_1122
*3684 FILLER_211_1186
*3685 FILLER_211_1192
*3686 FILLER_211_1256
*3687 FILLER_211_1262
*3688 FILLER_211_1326
*3689 FILLER_211_1332
*3690 FILLER_211_136
*3691 FILLER_211_1396
*3692 FILLER_211_1402
*3693 FILLER_211_142
*3694 FILLER_211_1466
*3695 FILLER_211_1472
*3696 FILLER_211_1536
*3697 FILLER_211_1542
*3698 FILLER_211_1606
*3699 FILLER_211_1612
*3700 FILLER_211_1676
*3701 FILLER_211_1682
*3702 FILLER_211_1746
*3703 FILLER_211_1752
*3704 FILLER_211_1816
*3705 FILLER_211_1822
*3706 FILLER_211_1886
*3707 FILLER_211_1892
*3708 FILLER_211_1924
*3709 FILLER_211_1932
*3710 FILLER_211_1936
*3711 FILLER_211_2
*3712 FILLER_211_206
*3713 FILLER_211_212
*3714 FILLER_211_276
*3715 FILLER_211_282
*3716 FILLER_211_346
*3717 FILLER_211_352
*3718 FILLER_211_416
*3719 FILLER_211_422
*3720 FILLER_211_486
*3721 FILLER_211_492
*3722 FILLER_211_556
*3723 FILLER_211_562
*3724 FILLER_211_626
*3725 FILLER_211_632
*3726 FILLER_211_66
*3727 FILLER_211_696
*3728 FILLER_211_702
*3729 FILLER_211_72
*3730 FILLER_211_766
*3731 FILLER_211_772
*3732 FILLER_211_836
*3733 FILLER_211_842
*3734 FILLER_211_906
*3735 FILLER_211_912
*3736 FILLER_211_976
*3737 FILLER_211_982
*3738 FILLER_212_101
*3739 FILLER_212_1011
*3740 FILLER_212_1017
*3741 FILLER_212_107
*3742 FILLER_212_1081
*3743 FILLER_212_1087
*3744 FILLER_212_1151
*3745 FILLER_212_1157
*3746 FILLER_212_1221
*3747 FILLER_212_1227
*3748 FILLER_212_1291
*3749 FILLER_212_1297
*3750 FILLER_212_1361
*3751 FILLER_212_1367
*3752 FILLER_212_1431
*3753 FILLER_212_1437
*3754 FILLER_212_1501
*3755 FILLER_212_1507
*3756 FILLER_212_1571
*3757 FILLER_212_1577
*3758 FILLER_212_1641
*3759 FILLER_212_1647
*3760 FILLER_212_171
*3761 FILLER_212_1711
*3762 FILLER_212_1717
*3763 FILLER_212_177
*3764 FILLER_212_1781
*3765 FILLER_212_1787
*3766 FILLER_212_1851
*3767 FILLER_212_1857
*3768 FILLER_212_1921
*3769 FILLER_212_1927
*3770 FILLER_212_1935
*3771 FILLER_212_1937
*3772 FILLER_212_2
*3773 FILLER_212_241
*3774 FILLER_212_247
*3775 FILLER_212_311
*3776 FILLER_212_317
*3777 FILLER_212_34
*3778 FILLER_212_37
*3779 FILLER_212_381
*3780 FILLER_212_387
*3781 FILLER_212_451
*3782 FILLER_212_457
*3783 FILLER_212_521
*3784 FILLER_212_527
*3785 FILLER_212_591
*3786 FILLER_212_597
*3787 FILLER_212_661
*3788 FILLER_212_667
*3789 FILLER_212_731
*3790 FILLER_212_737
*3791 FILLER_212_801
*3792 FILLER_212_807
*3793 FILLER_212_871
*3794 FILLER_212_877
*3795 FILLER_212_941
*3796 FILLER_212_947
*3797 FILLER_213_1046
*3798 FILLER_213_1052
*3799 FILLER_213_1116
*3800 FILLER_213_1122
*3801 FILLER_213_1186
*3802 FILLER_213_1192
*3803 FILLER_213_1256
*3804 FILLER_213_1262
*3805 FILLER_213_1326
*3806 FILLER_213_1332
*3807 FILLER_213_136
*3808 FILLER_213_1396
*3809 FILLER_213_1402
*3810 FILLER_213_142
*3811 FILLER_213_1466
*3812 FILLER_213_1472
*3813 FILLER_213_1536
*3814 FILLER_213_1542
*3815 FILLER_213_1606
*3816 FILLER_213_1612
*3817 FILLER_213_1676
*3818 FILLER_213_1682
*3819 FILLER_213_1746
*3820 FILLER_213_1752
*3821 FILLER_213_1816
*3822 FILLER_213_1822
*3823 FILLER_213_1886
*3824 FILLER_213_1892
*3825 FILLER_213_1924
*3826 FILLER_213_1932
*3827 FILLER_213_1936
*3828 FILLER_213_2
*3829 FILLER_213_206
*3830 FILLER_213_212
*3831 FILLER_213_276
*3832 FILLER_213_282
*3833 FILLER_213_346
*3834 FILLER_213_352
*3835 FILLER_213_416
*3836 FILLER_213_422
*3837 FILLER_213_486
*3838 FILLER_213_492
*3839 FILLER_213_556
*3840 FILLER_213_562
*3841 FILLER_213_626
*3842 FILLER_213_632
*3843 FILLER_213_66
*3844 FILLER_213_696
*3845 FILLER_213_702
*3846 FILLER_213_72
*3847 FILLER_213_766
*3848 FILLER_213_772
*3849 FILLER_213_836
*3850 FILLER_213_842
*3851 FILLER_213_906
*3852 FILLER_213_912
*3853 FILLER_213_976
*3854 FILLER_213_982
*3855 FILLER_214_101
*3856 FILLER_214_1011
*3857 FILLER_214_1017
*3858 FILLER_214_107
*3859 FILLER_214_1081
*3860 FILLER_214_1087
*3861 FILLER_214_1151
*3862 FILLER_214_1157
*3863 FILLER_214_1221
*3864 FILLER_214_1227
*3865 FILLER_214_1291
*3866 FILLER_214_1297
*3867 FILLER_214_1361
*3868 FILLER_214_1367
*3869 FILLER_214_1431
*3870 FILLER_214_1437
*3871 FILLER_214_1501
*3872 FILLER_214_1507
*3873 FILLER_214_1571
*3874 FILLER_214_1577
*3875 FILLER_214_1641
*3876 FILLER_214_1647
*3877 FILLER_214_171
*3878 FILLER_214_1711
*3879 FILLER_214_1717
*3880 FILLER_214_177
*3881 FILLER_214_1781
*3882 FILLER_214_1787
*3883 FILLER_214_1851
*3884 FILLER_214_1857
*3885 FILLER_214_1921
*3886 FILLER_214_1927
*3887 FILLER_214_1935
*3888 FILLER_214_1937
*3889 FILLER_214_2
*3890 FILLER_214_241
*3891 FILLER_214_247
*3892 FILLER_214_311
*3893 FILLER_214_317
*3894 FILLER_214_34
*3895 FILLER_214_37
*3896 FILLER_214_381
*3897 FILLER_214_387
*3898 FILLER_214_451
*3899 FILLER_214_457
*3900 FILLER_214_521
*3901 FILLER_214_527
*3902 FILLER_214_591
*3903 FILLER_214_597
*3904 FILLER_214_661
*3905 FILLER_214_667
*3906 FILLER_214_731
*3907 FILLER_214_737
*3908 FILLER_214_801
*3909 FILLER_214_807
*3910 FILLER_214_871
*3911 FILLER_214_877
*3912 FILLER_214_941
*3913 FILLER_214_947
*3914 FILLER_215_1046
*3915 FILLER_215_1052
*3916 FILLER_215_1116
*3917 FILLER_215_1122
*3918 FILLER_215_1186
*3919 FILLER_215_1192
*3920 FILLER_215_1256
*3921 FILLER_215_1262
*3922 FILLER_215_1326
*3923 FILLER_215_1332
*3924 FILLER_215_136
*3925 FILLER_215_1396
*3926 FILLER_215_1402
*3927 FILLER_215_142
*3928 FILLER_215_1466
*3929 FILLER_215_1472
*3930 FILLER_215_1536
*3931 FILLER_215_1542
*3932 FILLER_215_1606
*3933 FILLER_215_1612
*3934 FILLER_215_1676
*3935 FILLER_215_1682
*3936 FILLER_215_1746
*3937 FILLER_215_1752
*3938 FILLER_215_1816
*3939 FILLER_215_1822
*3940 FILLER_215_1886
*3941 FILLER_215_1892
*3942 FILLER_215_1924
*3943 FILLER_215_1932
*3944 FILLER_215_1936
*3945 FILLER_215_2
*3946 FILLER_215_206
*3947 FILLER_215_212
*3948 FILLER_215_276
*3949 FILLER_215_282
*3950 FILLER_215_346
*3951 FILLER_215_352
*3952 FILLER_215_416
*3953 FILLER_215_422
*3954 FILLER_215_486
*3955 FILLER_215_492
*3956 FILLER_215_556
*3957 FILLER_215_562
*3958 FILLER_215_626
*3959 FILLER_215_632
*3960 FILLER_215_66
*3961 FILLER_215_696
*3962 FILLER_215_702
*3963 FILLER_215_72
*3964 FILLER_215_766
*3965 FILLER_215_772
*3966 FILLER_215_836
*3967 FILLER_215_842
*3968 FILLER_215_906
*3969 FILLER_215_912
*3970 FILLER_215_976
*3971 FILLER_215_982
*3972 FILLER_216_101
*3973 FILLER_216_1011
*3974 FILLER_216_1017
*3975 FILLER_216_107
*3976 FILLER_216_1081
*3977 FILLER_216_1087
*3978 FILLER_216_1151
*3979 FILLER_216_1157
*3980 FILLER_216_1221
*3981 FILLER_216_1227
*3982 FILLER_216_1291
*3983 FILLER_216_1297
*3984 FILLER_216_1361
*3985 FILLER_216_1367
*3986 FILLER_216_1431
*3987 FILLER_216_1437
*3988 FILLER_216_1501
*3989 FILLER_216_1507
*3990 FILLER_216_1571
*3991 FILLER_216_1577
*3992 FILLER_216_1641
*3993 FILLER_216_1647
*3994 FILLER_216_171
*3995 FILLER_216_1711
*3996 FILLER_216_1717
*3997 FILLER_216_177
*3998 FILLER_216_1781
*3999 FILLER_216_1787
*4000 FILLER_216_1851
*4001 FILLER_216_1857
*4002 FILLER_216_1921
*4003 FILLER_216_1927
*4004 FILLER_216_1935
*4005 FILLER_216_1937
*4006 FILLER_216_2
*4007 FILLER_216_241
*4008 FILLER_216_247
*4009 FILLER_216_311
*4010 FILLER_216_317
*4011 FILLER_216_34
*4012 FILLER_216_37
*4013 FILLER_216_381
*4014 FILLER_216_387
*4015 FILLER_216_451
*4016 FILLER_216_457
*4017 FILLER_216_521
*4018 FILLER_216_527
*4019 FILLER_216_591
*4020 FILLER_216_597
*4021 FILLER_216_661
*4022 FILLER_216_667
*4023 FILLER_216_731
*4024 FILLER_216_737
*4025 FILLER_216_801
*4026 FILLER_216_807
*4027 FILLER_216_871
*4028 FILLER_216_877
*4029 FILLER_216_941
*4030 FILLER_216_947
*4031 FILLER_217_1046
*4032 FILLER_217_1052
*4033 FILLER_217_1116
*4034 FILLER_217_1122
*4035 FILLER_217_1138
*4036 FILLER_217_1140
*4037 FILLER_217_1175
*4038 FILLER_217_1183
*4039 FILLER_217_1187
*4040 FILLER_217_1189
*4041 FILLER_217_1192
*4042 FILLER_217_1256
*4043 FILLER_217_1262
*4044 FILLER_217_1326
*4045 FILLER_217_1332
*4046 FILLER_217_136
*4047 FILLER_217_1396
*4048 FILLER_217_1402
*4049 FILLER_217_142
*4050 FILLER_217_1466
*4051 FILLER_217_1472
*4052 FILLER_217_1536
*4053 FILLER_217_1542
*4054 FILLER_217_1606
*4055 FILLER_217_1612
*4056 FILLER_217_1676
*4057 FILLER_217_1682
*4058 FILLER_217_1746
*4059 FILLER_217_1752
*4060 FILLER_217_1816
*4061 FILLER_217_1822
*4062 FILLER_217_1886
*4063 FILLER_217_1892
*4064 FILLER_217_1924
*4065 FILLER_217_1932
*4066 FILLER_217_1936
*4067 FILLER_217_2
*4068 FILLER_217_206
*4069 FILLER_217_212
*4070 FILLER_217_276
*4071 FILLER_217_282
*4072 FILLER_217_346
*4073 FILLER_217_352
*4074 FILLER_217_416
*4075 FILLER_217_422
*4076 FILLER_217_486
*4077 FILLER_217_492
*4078 FILLER_217_556
*4079 FILLER_217_562
*4080 FILLER_217_626
*4081 FILLER_217_632
*4082 FILLER_217_66
*4083 FILLER_217_696
*4084 FILLER_217_702
*4085 FILLER_217_72
*4086 FILLER_217_766
*4087 FILLER_217_772
*4088 FILLER_217_780
*4089 FILLER_217_782
*4090 FILLER_217_817
*4091 FILLER_217_833
*4092 FILLER_217_837
*4093 FILLER_217_839
*4094 FILLER_217_842
*4095 FILLER_217_906
*4096 FILLER_217_912
*4097 FILLER_217_976
*4098 FILLER_217_982
*4099 FILLER_218_101
*4100 FILLER_218_1011
*4101 FILLER_218_1017
*4102 FILLER_218_107
*4103 FILLER_218_1081
*4104 FILLER_218_1087
*4105 FILLER_218_1151
*4106 FILLER_218_1157
*4107 FILLER_218_1221
*4108 FILLER_218_1227
*4109 FILLER_218_1291
*4110 FILLER_218_1297
*4111 FILLER_218_1361
*4112 FILLER_218_1367
*4113 FILLER_218_1431
*4114 FILLER_218_1437
*4115 FILLER_218_1501
*4116 FILLER_218_1507
*4117 FILLER_218_1571
*4118 FILLER_218_1577
*4119 FILLER_218_1641
*4120 FILLER_218_1647
*4121 FILLER_218_171
*4122 FILLER_218_1711
*4123 FILLER_218_1717
*4124 FILLER_218_177
*4125 FILLER_218_1781
*4126 FILLER_218_1787
*4127 FILLER_218_1851
*4128 FILLER_218_1857
*4129 FILLER_218_1921
*4130 FILLER_218_1927
*4131 FILLER_218_1935
*4132 FILLER_218_1937
*4133 FILLER_218_2
*4134 FILLER_218_241
*4135 FILLER_218_247
*4136 FILLER_218_311
*4137 FILLER_218_317
*4138 FILLER_218_34
*4139 FILLER_218_37
*4140 FILLER_218_381
*4141 FILLER_218_387
*4142 FILLER_218_451
*4143 FILLER_218_457
*4144 FILLER_218_521
*4145 FILLER_218_527
*4146 FILLER_218_591
*4147 FILLER_218_597
*4148 FILLER_218_661
*4149 FILLER_218_667
*4150 FILLER_218_731
*4151 FILLER_218_737
*4152 FILLER_218_769
*4153 FILLER_218_807
*4154 FILLER_218_823
*4155 FILLER_218_831
*4156 FILLER_218_869
*4157 FILLER_218_873
*4158 FILLER_218_877
*4159 FILLER_218_941
*4160 FILLER_218_947
*4161 FILLER_219_1046
*4162 FILLER_219_1052
*4163 FILLER_219_1054
*4164 FILLER_219_1089
*4165 FILLER_219_1105
*4166 FILLER_219_1113
*4167 FILLER_219_1117
*4168 FILLER_219_1119
*4169 FILLER_219_1122
*4170 FILLER_219_1126
*4171 FILLER_219_1161
*4172 FILLER_219_1177
*4173 FILLER_219_1185
*4174 FILLER_219_1189
*4175 FILLER_219_1192
*4176 FILLER_219_1256
*4177 FILLER_219_1262
*4178 FILLER_219_1326
*4179 FILLER_219_1332
*4180 FILLER_219_136
*4181 FILLER_219_1396
*4182 FILLER_219_1402
*4183 FILLER_219_142
*4184 FILLER_219_1466
*4185 FILLER_219_1472
*4186 FILLER_219_1536
*4187 FILLER_219_1542
*4188 FILLER_219_1606
*4189 FILLER_219_1612
*4190 FILLER_219_1676
*4191 FILLER_219_1682
*4192 FILLER_219_1746
*4193 FILLER_219_1752
*4194 FILLER_219_1816
*4195 FILLER_219_1822
*4196 FILLER_219_1886
*4197 FILLER_219_1892
*4198 FILLER_219_1924
*4199 FILLER_219_1932
*4200 FILLER_219_1936
*4201 FILLER_219_2
*4202 FILLER_219_206
*4203 FILLER_219_212
*4204 FILLER_219_276
*4205 FILLER_219_282
*4206 FILLER_219_346
*4207 FILLER_219_352
*4208 FILLER_219_416
*4209 FILLER_219_422
*4210 FILLER_219_486
*4211 FILLER_219_492
*4212 FILLER_219_556
*4213 FILLER_219_562
*4214 FILLER_219_626
*4215 FILLER_219_632
*4216 FILLER_219_66
*4217 FILLER_219_696
*4218 FILLER_219_702
*4219 FILLER_219_72
*4220 FILLER_219_766
*4221 FILLER_219_772
*4222 FILLER_219_788
*4223 FILLER_219_792
*4224 FILLER_219_794
*4225 FILLER_219_829
*4226 FILLER_219_837
*4227 FILLER_219_839
*4228 FILLER_219_842
*4229 FILLER_219_858
*4230 FILLER_219_866
*4231 FILLER_219_901
*4232 FILLER_219_909
*4233 FILLER_219_912
*4234 FILLER_219_976
*4235 FILLER_219_982
*4236 FILLER_21_104
*4237 FILLER_21_120
*4238 FILLER_21_124
*4239 FILLER_21_1815
*4240 FILLER_21_1879
*4241 FILLER_21_1885
*4242 FILLER_21_1917
*4243 FILLER_21_1933
*4244 FILLER_21_1937
*4245 FILLER_21_2
*4246 FILLER_21_66
*4247 FILLER_21_72
*4248 FILLER_21_937
*4249 FILLER_21_953
*4250 FILLER_21_995
*4251 FILLER_220_1022
*4252 FILLER_220_104
*4253 FILLER_220_1056
*4254 FILLER_220_1090
*4255 FILLER_220_1124
*4256 FILLER_220_1158
*4257 FILLER_220_1192
*4258 FILLER_220_1226
*4259 FILLER_220_1260
*4260 FILLER_220_1294
*4261 FILLER_220_1328
*4262 FILLER_220_1362
*4263 FILLER_220_138
*4264 FILLER_220_1396
*4265 FILLER_220_1430
*4266 FILLER_220_1464
*4267 FILLER_220_1498
*4268 FILLER_220_1532
*4269 FILLER_220_1566
*4270 FILLER_220_1600
*4271 FILLER_220_1634
*4272 FILLER_220_1668
*4273 FILLER_220_1702
*4274 FILLER_220_172
*4275 FILLER_220_1736
*4276 FILLER_220_1770
*4277 FILLER_220_1804
*4278 FILLER_220_1838
*4279 FILLER_220_1872
*4280 FILLER_220_1906
*4281 FILLER_220_2
*4282 FILLER_220_206
*4283 FILLER_220_240
*4284 FILLER_220_274
*4285 FILLER_220_308
*4286 FILLER_220_342
*4287 FILLER_220_36
*4288 FILLER_220_376
*4289 FILLER_220_410
*4290 FILLER_220_444
*4291 FILLER_220_478
*4292 FILLER_220_512
*4293 FILLER_220_546
*4294 FILLER_220_580
*4295 FILLER_220_614
*4296 FILLER_220_648
*4297 FILLER_220_682
*4298 FILLER_220_70
*4299 FILLER_220_716
*4300 FILLER_220_750
*4301 FILLER_220_784
*4302 FILLER_220_818
*4303 FILLER_220_852
*4304 FILLER_220_886
*4305 FILLER_220_902
*4306 FILLER_220_910
*4307 FILLER_220_912
*4308 FILLER_220_917
*4309 FILLER_220_920
*4310 FILLER_220_936
*4311 FILLER_220_944
*4312 FILLER_220_954
*4313 FILLER_220_962
*4314 FILLER_220_964
*4315 FILLER_220_973
*4316 FILLER_220_985
*4317 FILLER_220_988
*4318 FILLER_22_101
*4319 FILLER_22_107
*4320 FILLER_22_123
*4321 FILLER_22_1815
*4322 FILLER_22_1847
*4323 FILLER_22_1850
*4324 FILLER_22_1914
*4325 FILLER_22_1920
*4326 FILLER_22_1936
*4327 FILLER_22_2
*4328 FILLER_22_34
*4329 FILLER_22_37
*4330 FILLER_22_966
*4331 FILLER_22_972
*4332 FILLER_22_982
*4333 FILLER_22_990
*4334 FILLER_22_994
*4335 FILLER_23_1001
*4336 FILLER_23_104
*4337 FILLER_23_120
*4338 FILLER_23_124
*4339 FILLER_23_1815
*4340 FILLER_23_1879
*4341 FILLER_23_1885
*4342 FILLER_23_1917
*4343 FILLER_23_1933
*4344 FILLER_23_1937
*4345 FILLER_23_2
*4346 FILLER_23_66
*4347 FILLER_23_72
*4348 FILLER_23_937
*4349 FILLER_23_953
*4350 FILLER_23_961
*4351 FILLER_23_965
*4352 FILLER_23_972
*4353 FILLER_23_989
*4354 FILLER_23_997
*4355 FILLER_24_1002
*4356 FILLER_24_101
*4357 FILLER_24_107
*4358 FILLER_24_123
*4359 FILLER_24_1815
*4360 FILLER_24_1847
*4361 FILLER_24_1850
*4362 FILLER_24_1914
*4363 FILLER_24_1920
*4364 FILLER_24_1936
*4365 FILLER_24_2
*4366 FILLER_24_34
*4367 FILLER_24_37
*4368 FILLER_24_937
*4369 FILLER_24_953
*4370 FILLER_24_986
*4371 FILLER_25_1000
*4372 FILLER_25_1002
*4373 FILLER_25_104
*4374 FILLER_25_120
*4375 FILLER_25_124
*4376 FILLER_25_1815
*4377 FILLER_25_1879
*4378 FILLER_25_1885
*4379 FILLER_25_1917
*4380 FILLER_25_1933
*4381 FILLER_25_1937
*4382 FILLER_25_2
*4383 FILLER_25_66
*4384 FILLER_25_72
*4385 FILLER_25_937
*4386 FILLER_25_953
*4387 FILLER_25_988
*4388 FILLER_25_996
*4389 FILLER_26_1001
*4390 FILLER_26_101
*4391 FILLER_26_107
*4392 FILLER_26_123
*4393 FILLER_26_1815
*4394 FILLER_26_1847
*4395 FILLER_26_1850
*4396 FILLER_26_1914
*4397 FILLER_26_1920
*4398 FILLER_26_1936
*4399 FILLER_26_2
*4400 FILLER_26_34
*4401 FILLER_26_37
*4402 FILLER_26_937
*4403 FILLER_26_969
*4404 FILLER_27_104
*4405 FILLER_27_120
*4406 FILLER_27_124
*4407 FILLER_27_1815
*4408 FILLER_27_1879
*4409 FILLER_27_1885
*4410 FILLER_27_1917
*4411 FILLER_27_1933
*4412 FILLER_27_1937
*4413 FILLER_27_2
*4414 FILLER_27_66
*4415 FILLER_27_72
*4416 FILLER_27_946
*4417 FILLER_27_962
*4418 FILLER_27_970
*4419 FILLER_27_987
*4420 FILLER_28_101
*4421 FILLER_28_107
*4422 FILLER_28_123
*4423 FILLER_28_1815
*4424 FILLER_28_1847
*4425 FILLER_28_1850
*4426 FILLER_28_1914
*4427 FILLER_28_1920
*4428 FILLER_28_1936
*4429 FILLER_28_2
*4430 FILLER_28_34
*4431 FILLER_28_37
*4432 FILLER_28_937
*4433 FILLER_28_939
*4434 FILLER_28_955
*4435 FILLER_28_963
*4436 FILLER_28_967
*4437 FILLER_28_969
*4438 FILLER_28_972
*4439 FILLER_28_988
*4440 FILLER_28_992
*4441 FILLER_29_104
*4442 FILLER_29_120
*4443 FILLER_29_124
*4444 FILLER_29_1815
*4445 FILLER_29_1879
*4446 FILLER_29_1885
*4447 FILLER_29_1917
*4448 FILLER_29_1933
*4449 FILLER_29_1937
*4450 FILLER_29_2
*4451 FILLER_29_66
*4452 FILLER_29_72
*4453 FILLER_29_951
*4454 FILLER_29_983
*4455 FILLER_29_999
*4456 FILLER_2_101
*4457 FILLER_2_107
*4458 FILLER_2_1191
*4459 FILLER_2_1223
*4460 FILLER_2_1227
*4461 FILLER_2_1291
*4462 FILLER_2_1297
*4463 FILLER_2_1361
*4464 FILLER_2_1367
*4465 FILLER_2_1375
*4466 FILLER_2_1413
*4467 FILLER_2_1429
*4468 FILLER_2_1433
*4469 FILLER_2_1437
*4470 FILLER_2_1456
*4471 FILLER_2_1464
*4472 FILLER_2_1483
*4473 FILLER_2_1499
*4474 FILLER_2_1503
*4475 FILLER_2_1507
*4476 FILLER_2_1571
*4477 FILLER_2_1577
*4478 FILLER_2_1641
*4479 FILLER_2_1647
*4480 FILLER_2_1651
*4481 FILLER_2_1687
*4482 FILLER_2_1703
*4483 FILLER_2_171
*4484 FILLER_2_1711
*4485 FILLER_2_1717
*4486 FILLER_2_177
*4487 FILLER_2_1781
*4488 FILLER_2_1787
*4489 FILLER_2_1851
*4490 FILLER_2_1857
*4491 FILLER_2_1921
*4492 FILLER_2_1927
*4493 FILLER_2_193
*4494 FILLER_2_1935
*4495 FILLER_2_1937
*4496 FILLER_2_2
*4497 FILLER_2_201
*4498 FILLER_2_237
*4499 FILLER_2_247
*4500 FILLER_2_263
*4501 FILLER_2_267
*4502 FILLER_2_303
*4503 FILLER_2_311
*4504 FILLER_2_317
*4505 FILLER_2_333
*4506 FILLER_2_34
*4507 FILLER_2_341
*4508 FILLER_2_37
*4509 FILLER_2_377
*4510 FILLER_2_402
*4511 FILLER_2_418
*4512 FILLER_2_420
*4513 FILLER_2_457
*4514 FILLER_2_473
*4515 FILLER_2_509
*4516 FILLER_2_527
*4517 FILLER_2_591
*4518 FILLER_2_597
*4519 FILLER_2_661
*4520 FILLER_2_667
*4521 FILLER_2_683
*4522 FILLER_2_725
*4523 FILLER_2_733
*4524 FILLER_2_737
*4525 FILLER_2_769
*4526 FILLER_2_785
*4527 FILLER_2_793
*4528 FILLER_2_807
*4529 FILLER_30_1001
*4530 FILLER_30_101
*4531 FILLER_30_107
*4532 FILLER_30_123
*4533 FILLER_30_1815
*4534 FILLER_30_1847
*4535 FILLER_30_1850
*4536 FILLER_30_1914
*4537 FILLER_30_1920
*4538 FILLER_30_1936
*4539 FILLER_30_2
*4540 FILLER_30_34
*4541 FILLER_30_37
*4542 FILLER_30_966
*4543 FILLER_31_1001
*4544 FILLER_31_104
*4545 FILLER_31_120
*4546 FILLER_31_124
*4547 FILLER_31_1815
*4548 FILLER_31_1879
*4549 FILLER_31_1885
*4550 FILLER_31_1917
*4551 FILLER_31_1933
*4552 FILLER_31_1937
*4553 FILLER_31_2
*4554 FILLER_31_66
*4555 FILLER_31_72
*4556 FILLER_31_937
*4557 FILLER_32_101
*4558 FILLER_32_107
*4559 FILLER_32_123
*4560 FILLER_32_1815
*4561 FILLER_32_1847
*4562 FILLER_32_1850
*4563 FILLER_32_1914
*4564 FILLER_32_1920
*4565 FILLER_32_1936
*4566 FILLER_32_2
*4567 FILLER_32_34
*4568 FILLER_32_37
*4569 FILLER_32_937
*4570 FILLER_32_969
*4571 FILLER_32_972
*4572 FILLER_32_988
*4573 FILLER_32_992
*4574 FILLER_32_994
*4575 FILLER_33_1001
*4576 FILLER_33_104
*4577 FILLER_33_120
*4578 FILLER_33_124
*4579 FILLER_33_1815
*4580 FILLER_33_1879
*4581 FILLER_33_1885
*4582 FILLER_33_1917
*4583 FILLER_33_1933
*4584 FILLER_33_1937
*4585 FILLER_33_2
*4586 FILLER_33_66
*4587 FILLER_33_72
*4588 FILLER_33_937
*4589 FILLER_34_101
*4590 FILLER_34_107
*4591 FILLER_34_123
*4592 FILLER_34_1815
*4593 FILLER_34_1847
*4594 FILLER_34_1850
*4595 FILLER_34_1914
*4596 FILLER_34_1920
*4597 FILLER_34_1936
*4598 FILLER_34_2
*4599 FILLER_34_34
*4600 FILLER_34_37
*4601 FILLER_34_937
*4602 FILLER_34_969
*4603 FILLER_34_972
*4604 FILLER_34_988
*4605 FILLER_35_1001
*4606 FILLER_35_104
*4607 FILLER_35_120
*4608 FILLER_35_124
*4609 FILLER_35_1815
*4610 FILLER_35_1879
*4611 FILLER_35_1885
*4612 FILLER_35_1917
*4613 FILLER_35_1933
*4614 FILLER_35_1937
*4615 FILLER_35_2
*4616 FILLER_35_66
*4617 FILLER_35_72
*4618 FILLER_35_945
*4619 FILLER_35_977
*4620 FILLER_35_993
*4621 FILLER_36_101
*4622 FILLER_36_107
*4623 FILLER_36_123
*4624 FILLER_36_1815
*4625 FILLER_36_1847
*4626 FILLER_36_1850
*4627 FILLER_36_1914
*4628 FILLER_36_1920
*4629 FILLER_36_1936
*4630 FILLER_36_2
*4631 FILLER_36_34
*4632 FILLER_36_37
*4633 FILLER_36_937
*4634 FILLER_36_969
*4635 FILLER_36_972
*4636 FILLER_36_988
*4637 FILLER_37_1001
*4638 FILLER_37_104
*4639 FILLER_37_120
*4640 FILLER_37_124
*4641 FILLER_37_1815
*4642 FILLER_37_1879
*4643 FILLER_37_1885
*4644 FILLER_37_1917
*4645 FILLER_37_1933
*4646 FILLER_37_1937
*4647 FILLER_37_2
*4648 FILLER_37_66
*4649 FILLER_37_72
*4650 FILLER_37_937
*4651 FILLER_38_1000
*4652 FILLER_38_1002
*4653 FILLER_38_101
*4654 FILLER_38_107
*4655 FILLER_38_123
*4656 FILLER_38_1815
*4657 FILLER_38_1847
*4658 FILLER_38_1850
*4659 FILLER_38_1914
*4660 FILLER_38_1920
*4661 FILLER_38_1936
*4662 FILLER_38_2
*4663 FILLER_38_34
*4664 FILLER_38_37
*4665 FILLER_38_937
*4666 FILLER_38_969
*4667 FILLER_38_972
*4668 FILLER_38_988
*4669 FILLER_38_996
*4670 FILLER_39_1001
*4671 FILLER_39_104
*4672 FILLER_39_120
*4673 FILLER_39_124
*4674 FILLER_39_1815
*4675 FILLER_39_1879
*4676 FILLER_39_1885
*4677 FILLER_39_1917
*4678 FILLER_39_1933
*4679 FILLER_39_1937
*4680 FILLER_39_2
*4681 FILLER_39_66
*4682 FILLER_39_72
*4683 FILLER_39_937
*4684 FILLER_3_1033
*4685 FILLER_3_1129
*4686 FILLER_3_1179
*4687 FILLER_3_1187
*4688 FILLER_3_1189
*4689 FILLER_3_1192
*4690 FILLER_3_1256
*4691 FILLER_3_1262
*4692 FILLER_3_1278
*4693 FILLER_3_1294
*4694 FILLER_3_1326
*4695 FILLER_3_1332
*4696 FILLER_3_136
*4697 FILLER_3_1396
*4698 FILLER_3_142
*4699 FILLER_3_1451
*4700 FILLER_3_1453
*4701 FILLER_3_1469
*4702 FILLER_3_1472
*4703 FILLER_3_1536
*4704 FILLER_3_1542
*4705 FILLER_3_1606
*4706 FILLER_3_1612
*4707 FILLER_3_1676
*4708 FILLER_3_1682
*4709 FILLER_3_1746
*4710 FILLER_3_1752
*4711 FILLER_3_1816
*4712 FILLER_3_1822
*4713 FILLER_3_1886
*4714 FILLER_3_1892
*4715 FILLER_3_1924
*4716 FILLER_3_1932
*4717 FILLER_3_1936
*4718 FILLER_3_2
*4719 FILLER_3_206
*4720 FILLER_3_212
*4721 FILLER_3_276
*4722 FILLER_3_282
*4723 FILLER_3_346
*4724 FILLER_3_352
*4725 FILLER_3_384
*4726 FILLER_3_400
*4727 FILLER_3_419
*4728 FILLER_3_422
*4729 FILLER_3_445
*4730 FILLER_3_481
*4731 FILLER_3_489
*4732 FILLER_3_492
*4733 FILLER_3_556
*4734 FILLER_3_562
*4735 FILLER_3_626
*4736 FILLER_3_632
*4737 FILLER_3_66
*4738 FILLER_3_696
*4739 FILLER_3_702
*4740 FILLER_3_72
*4741 FILLER_3_766
*4742 FILLER_3_772
*4743 FILLER_3_788
*4744 FILLER_3_790
*4745 FILLER_3_927
*4746 FILLER_3_963
*4747 FILLER_3_982
*4748 FILLER_3_984
*4749 FILLER_40_1000
*4750 FILLER_40_1002
*4751 FILLER_40_101
*4752 FILLER_40_107
*4753 FILLER_40_123
*4754 FILLER_40_1815
*4755 FILLER_40_1847
*4756 FILLER_40_1850
*4757 FILLER_40_1914
*4758 FILLER_40_1920
*4759 FILLER_40_1936
*4760 FILLER_40_2
*4761 FILLER_40_34
*4762 FILLER_40_37
*4763 FILLER_40_937
*4764 FILLER_40_969
*4765 FILLER_40_972
*4766 FILLER_40_988
*4767 FILLER_40_996
*4768 FILLER_41_104
*4769 FILLER_41_120
*4770 FILLER_41_124
*4771 FILLER_41_1815
*4772 FILLER_41_1879
*4773 FILLER_41_1885
*4774 FILLER_41_1917
*4775 FILLER_41_1933
*4776 FILLER_41_1937
*4777 FILLER_41_2
*4778 FILLER_41_66
*4779 FILLER_41_72
*4780 FILLER_41_987
*4781 FILLER_42_1000
*4782 FILLER_42_1002
*4783 FILLER_42_101
*4784 FILLER_42_107
*4785 FILLER_42_123
*4786 FILLER_42_1815
*4787 FILLER_42_1847
*4788 FILLER_42_1850
*4789 FILLER_42_1914
*4790 FILLER_42_1920
*4791 FILLER_42_1936
*4792 FILLER_42_2
*4793 FILLER_42_34
*4794 FILLER_42_37
*4795 FILLER_42_955
*4796 FILLER_42_963
*4797 FILLER_42_967
*4798 FILLER_42_969
*4799 FILLER_42_972
*4800 FILLER_42_988
*4801 FILLER_42_996
*4802 FILLER_43_1001
*4803 FILLER_43_104
*4804 FILLER_43_120
*4805 FILLER_43_124
*4806 FILLER_43_1815
*4807 FILLER_43_1879
*4808 FILLER_43_1885
*4809 FILLER_43_1917
*4810 FILLER_43_1933
*4811 FILLER_43_1937
*4812 FILLER_43_2
*4813 FILLER_43_66
*4814 FILLER_43_72
*4815 FILLER_43_937
*4816 FILLER_44_1000
*4817 FILLER_44_1002
*4818 FILLER_44_101
*4819 FILLER_44_107
*4820 FILLER_44_123
*4821 FILLER_44_1815
*4822 FILLER_44_1847
*4823 FILLER_44_1850
*4824 FILLER_44_1914
*4825 FILLER_44_1920
*4826 FILLER_44_1936
*4827 FILLER_44_2
*4828 FILLER_44_34
*4829 FILLER_44_37
*4830 FILLER_44_937
*4831 FILLER_44_969
*4832 FILLER_44_972
*4833 FILLER_44_988
*4834 FILLER_44_996
*4835 FILLER_45_1001
*4836 FILLER_45_104
*4837 FILLER_45_120
*4838 FILLER_45_124
*4839 FILLER_45_1815
*4840 FILLER_45_1879
*4841 FILLER_45_1885
*4842 FILLER_45_1917
*4843 FILLER_45_1933
*4844 FILLER_45_1937
*4845 FILLER_45_2
*4846 FILLER_45_66
*4847 FILLER_45_72
*4848 FILLER_45_937
*4849 FILLER_46_101
*4850 FILLER_46_107
*4851 FILLER_46_123
*4852 FILLER_46_1815
*4853 FILLER_46_1847
*4854 FILLER_46_1850
*4855 FILLER_46_1914
*4856 FILLER_46_1920
*4857 FILLER_46_1936
*4858 FILLER_46_2
*4859 FILLER_46_34
*4860 FILLER_46_37
*4861 FILLER_46_937
*4862 FILLER_46_969
*4863 FILLER_46_972
*4864 FILLER_46_988
*4865 FILLER_46_992
*4866 FILLER_47_104
*4867 FILLER_47_120
*4868 FILLER_47_124
*4869 FILLER_47_1815
*4870 FILLER_47_1879
*4871 FILLER_47_1885
*4872 FILLER_47_1917
*4873 FILLER_47_1933
*4874 FILLER_47_1937
*4875 FILLER_47_2
*4876 FILLER_47_66
*4877 FILLER_47_72
*4878 FILLER_47_937
*4879 FILLER_48_1000
*4880 FILLER_48_1002
*4881 FILLER_48_101
*4882 FILLER_48_107
*4883 FILLER_48_123
*4884 FILLER_48_1815
*4885 FILLER_48_1847
*4886 FILLER_48_1850
*4887 FILLER_48_1914
*4888 FILLER_48_1920
*4889 FILLER_48_1936
*4890 FILLER_48_2
*4891 FILLER_48_34
*4892 FILLER_48_37
*4893 FILLER_48_937
*4894 FILLER_48_969
*4895 FILLER_48_972
*4896 FILLER_48_988
*4897 FILLER_48_996
*4898 FILLER_49_1001
*4899 FILLER_49_104
*4900 FILLER_49_120
*4901 FILLER_49_124
*4902 FILLER_49_1815
*4903 FILLER_49_1879
*4904 FILLER_49_1885
*4905 FILLER_49_1917
*4906 FILLER_49_1933
*4907 FILLER_49_1937
*4908 FILLER_49_2
*4909 FILLER_49_66
*4910 FILLER_49_72
*4911 FILLER_49_937
*4912 FILLER_4_101
*4913 FILLER_4_1013
*4914 FILLER_4_107
*4915 FILLER_4_1191
*4916 FILLER_4_1223
*4917 FILLER_4_1227
*4918 FILLER_4_1291
*4919 FILLER_4_1297
*4920 FILLER_4_1361
*4921 FILLER_4_1367
*4922 FILLER_4_1433
*4923 FILLER_4_1437
*4924 FILLER_4_1469
*4925 FILLER_4_1491
*4926 FILLER_4_1499
*4927 FILLER_4_1503
*4928 FILLER_4_1507
*4929 FILLER_4_1571
*4930 FILLER_4_1577
*4931 FILLER_4_1641
*4932 FILLER_4_1647
*4933 FILLER_4_171
*4934 FILLER_4_1711
*4935 FILLER_4_1717
*4936 FILLER_4_177
*4937 FILLER_4_1781
*4938 FILLER_4_1787
*4939 FILLER_4_1851
*4940 FILLER_4_1857
*4941 FILLER_4_1921
*4942 FILLER_4_1927
*4943 FILLER_4_1935
*4944 FILLER_4_1937
*4945 FILLER_4_2
*4946 FILLER_4_241
*4947 FILLER_4_247
*4948 FILLER_4_311
*4949 FILLER_4_317
*4950 FILLER_4_34
*4951 FILLER_4_37
*4952 FILLER_4_381
*4953 FILLER_4_387
*4954 FILLER_4_403
*4955 FILLER_4_407
*4956 FILLER_4_438
*4957 FILLER_4_454
*4958 FILLER_4_457
*4959 FILLER_4_521
*4960 FILLER_4_527
*4961 FILLER_4_591
*4962 FILLER_4_597
*4963 FILLER_4_661
*4964 FILLER_4_667
*4965 FILLER_4_731
*4966 FILLER_4_737
*4967 FILLER_4_801
*4968 FILLER_4_807
*4969 FILLER_4_811
*4970 FILLER_4_947
*4971 FILLER_4_949
*4972 FILLER_50_1000
*4973 FILLER_50_1002
*4974 FILLER_50_101
*4975 FILLER_50_107
*4976 FILLER_50_123
*4977 FILLER_50_1815
*4978 FILLER_50_1847
*4979 FILLER_50_1850
*4980 FILLER_50_1914
*4981 FILLER_50_1920
*4982 FILLER_50_1936
*4983 FILLER_50_2
*4984 FILLER_50_34
*4985 FILLER_50_37
*4986 FILLER_50_937
*4987 FILLER_50_969
*4988 FILLER_50_972
*4989 FILLER_50_988
*4990 FILLER_50_996
*4991 FILLER_51_1001
*4992 FILLER_51_104
*4993 FILLER_51_120
*4994 FILLER_51_124
*4995 FILLER_51_1815
*4996 FILLER_51_1879
*4997 FILLER_51_1885
*4998 FILLER_51_1917
*4999 FILLER_51_1933
*5000 FILLER_51_1937
*5001 FILLER_51_2
*5002 FILLER_51_66
*5003 FILLER_51_72
*5004 FILLER_51_937
*5005 FILLER_52_1000
*5006 FILLER_52_1002
*5007 FILLER_52_101
*5008 FILLER_52_107
*5009 FILLER_52_123
*5010 FILLER_52_1815
*5011 FILLER_52_1847
*5012 FILLER_52_1850
*5013 FILLER_52_1914
*5014 FILLER_52_1920
*5015 FILLER_52_1936
*5016 FILLER_52_2
*5017 FILLER_52_34
*5018 FILLER_52_37
*5019 FILLER_52_937
*5020 FILLER_52_969
*5021 FILLER_52_972
*5022 FILLER_52_988
*5023 FILLER_52_996
*5024 FILLER_53_104
*5025 FILLER_53_120
*5026 FILLER_53_124
*5027 FILLER_53_1815
*5028 FILLER_53_1879
*5029 FILLER_53_1885
*5030 FILLER_53_1917
*5031 FILLER_53_1933
*5032 FILLER_53_1937
*5033 FILLER_53_2
*5034 FILLER_53_66
*5035 FILLER_53_72
*5036 FILLER_53_937
*5037 FILLER_53_969
*5038 FILLER_53_985
*5039 FILLER_53_987
*5040 FILLER_54_1000
*5041 FILLER_54_1002
*5042 FILLER_54_101
*5043 FILLER_54_107
*5044 FILLER_54_123
*5045 FILLER_54_1815
*5046 FILLER_54_1847
*5047 FILLER_54_1850
*5048 FILLER_54_1914
*5049 FILLER_54_1920
*5050 FILLER_54_1936
*5051 FILLER_54_2
*5052 FILLER_54_34
*5053 FILLER_54_37
*5054 FILLER_54_937
*5055 FILLER_54_969
*5056 FILLER_54_972
*5057 FILLER_54_988
*5058 FILLER_54_996
*5059 FILLER_55_1002
*5060 FILLER_55_104
*5061 FILLER_55_120
*5062 FILLER_55_124
*5063 FILLER_55_1815
*5064 FILLER_55_1879
*5065 FILLER_55_1885
*5066 FILLER_55_1917
*5067 FILLER_55_1933
*5068 FILLER_55_1937
*5069 FILLER_55_2
*5070 FILLER_55_66
*5071 FILLER_55_72
*5072 FILLER_55_937
*5073 FILLER_55_945
*5074 FILLER_55_949
*5075 FILLER_55_951
*5076 FILLER_56_1000
*5077 FILLER_56_1002
*5078 FILLER_56_101
*5079 FILLER_56_107
*5080 FILLER_56_123
*5081 FILLER_56_1815
*5082 FILLER_56_1847
*5083 FILLER_56_1850
*5084 FILLER_56_1914
*5085 FILLER_56_1920
*5086 FILLER_56_1936
*5087 FILLER_56_2
*5088 FILLER_56_34
*5089 FILLER_56_37
*5090 FILLER_56_937
*5091 FILLER_56_969
*5092 FILLER_56_972
*5093 FILLER_56_988
*5094 FILLER_56_996
*5095 FILLER_57_1002
*5096 FILLER_57_104
*5097 FILLER_57_120
*5098 FILLER_57_124
*5099 FILLER_57_1815
*5100 FILLER_57_1879
*5101 FILLER_57_1885
*5102 FILLER_57_1917
*5103 FILLER_57_1933
*5104 FILLER_57_1937
*5105 FILLER_57_2
*5106 FILLER_57_66
*5107 FILLER_57_72
*5108 FILLER_57_937
*5109 FILLER_57_945
*5110 FILLER_57_949
*5111 FILLER_57_951
*5112 FILLER_58_1000
*5113 FILLER_58_1002
*5114 FILLER_58_101
*5115 FILLER_58_107
*5116 FILLER_58_123
*5117 FILLER_58_1815
*5118 FILLER_58_1847
*5119 FILLER_58_1850
*5120 FILLER_58_1914
*5121 FILLER_58_1920
*5122 FILLER_58_1936
*5123 FILLER_58_2
*5124 FILLER_58_34
*5125 FILLER_58_37
*5126 FILLER_58_937
*5127 FILLER_58_969
*5128 FILLER_58_972
*5129 FILLER_58_988
*5130 FILLER_58_996
*5131 FILLER_59_1001
*5132 FILLER_59_104
*5133 FILLER_59_120
*5134 FILLER_59_124
*5135 FILLER_59_1829
*5136 FILLER_59_1861
*5137 FILLER_59_1877
*5138 FILLER_59_1881
*5139 FILLER_59_1885
*5140 FILLER_59_1917
*5141 FILLER_59_1933
*5142 FILLER_59_1937
*5143 FILLER_59_2
*5144 FILLER_59_66
*5145 FILLER_59_72
*5146 FILLER_59_937
*5147 FILLER_5_1029
*5148 FILLER_5_1031
*5149 FILLER_5_1122
*5150 FILLER_5_1175
*5151 FILLER_5_1183
*5152 FILLER_5_1187
*5153 FILLER_5_1189
*5154 FILLER_5_1192
*5155 FILLER_5_1256
*5156 FILLER_5_1262
*5157 FILLER_5_1326
*5158 FILLER_5_1332
*5159 FILLER_5_136
*5160 FILLER_5_1396
*5161 FILLER_5_1402
*5162 FILLER_5_142
*5163 FILLER_5_1466
*5164 FILLER_5_1472
*5165 FILLER_5_1536
*5166 FILLER_5_1542
*5167 FILLER_5_1606
*5168 FILLER_5_1612
*5169 FILLER_5_1676
*5170 FILLER_5_1682
*5171 FILLER_5_1746
*5172 FILLER_5_1752
*5173 FILLER_5_1816
*5174 FILLER_5_1822
*5175 FILLER_5_1886
*5176 FILLER_5_1892
*5177 FILLER_5_1924
*5178 FILLER_5_1932
*5179 FILLER_5_1936
*5180 FILLER_5_2
*5181 FILLER_5_206
*5182 FILLER_5_212
*5183 FILLER_5_276
*5184 FILLER_5_282
*5185 FILLER_5_346
*5186 FILLER_5_352
*5187 FILLER_5_416
*5188 FILLER_5_422
*5189 FILLER_5_486
*5190 FILLER_5_492
*5191 FILLER_5_556
*5192 FILLER_5_562
*5193 FILLER_5_626
*5194 FILLER_5_632
*5195 FILLER_5_66
*5196 FILLER_5_696
*5197 FILLER_5_702
*5198 FILLER_5_72
*5199 FILLER_5_766
*5200 FILLER_5_772
*5201 FILLER_5_804
*5202 FILLER_60_1000
*5203 FILLER_60_1002
*5204 FILLER_60_101
*5205 FILLER_60_107
*5206 FILLER_60_123
*5207 FILLER_60_1815
*5208 FILLER_60_1847
*5209 FILLER_60_1850
*5210 FILLER_60_1914
*5211 FILLER_60_1920
*5212 FILLER_60_1936
*5213 FILLER_60_2
*5214 FILLER_60_34
*5215 FILLER_60_37
*5216 FILLER_60_937
*5217 FILLER_60_969
*5218 FILLER_60_972
*5219 FILLER_60_988
*5220 FILLER_60_996
*5221 FILLER_61_1001
*5222 FILLER_61_104
*5223 FILLER_61_120
*5224 FILLER_61_124
*5225 FILLER_61_1815
*5226 FILLER_61_1879
*5227 FILLER_61_1885
*5228 FILLER_61_1917
*5229 FILLER_61_1933
*5230 FILLER_61_1937
*5231 FILLER_61_2
*5232 FILLER_61_66
*5233 FILLER_61_72
*5234 FILLER_61_937
*5235 FILLER_62_1000
*5236 FILLER_62_1002
*5237 FILLER_62_101
*5238 FILLER_62_107
*5239 FILLER_62_123
*5240 FILLER_62_1815
*5241 FILLER_62_1847
*5242 FILLER_62_1850
*5243 FILLER_62_1914
*5244 FILLER_62_1920
*5245 FILLER_62_1936
*5246 FILLER_62_2
*5247 FILLER_62_34
*5248 FILLER_62_37
*5249 FILLER_62_937
*5250 FILLER_62_969
*5251 FILLER_62_972
*5252 FILLER_62_988
*5253 FILLER_62_996
*5254 FILLER_63_104
*5255 FILLER_63_120
*5256 FILLER_63_124
*5257 FILLER_63_1815
*5258 FILLER_63_1879
*5259 FILLER_63_1885
*5260 FILLER_63_1917
*5261 FILLER_63_1933
*5262 FILLER_63_1937
*5263 FILLER_63_2
*5264 FILLER_63_66
*5265 FILLER_63_72
*5266 FILLER_63_937
*5267 FILLER_63_969
*5268 FILLER_63_973
*5269 FILLER_64_1000
*5270 FILLER_64_1002
*5271 FILLER_64_101
*5272 FILLER_64_107
*5273 FILLER_64_123
*5274 FILLER_64_1815
*5275 FILLER_64_1847
*5276 FILLER_64_1850
*5277 FILLER_64_1914
*5278 FILLER_64_1920
*5279 FILLER_64_1936
*5280 FILLER_64_2
*5281 FILLER_64_34
*5282 FILLER_64_37
*5283 FILLER_64_937
*5284 FILLER_64_969
*5285 FILLER_64_972
*5286 FILLER_64_988
*5287 FILLER_64_996
*5288 FILLER_65_1001
*5289 FILLER_65_104
*5290 FILLER_65_120
*5291 FILLER_65_124
*5292 FILLER_65_1815
*5293 FILLER_65_1879
*5294 FILLER_65_1885
*5295 FILLER_65_1917
*5296 FILLER_65_1933
*5297 FILLER_65_1937
*5298 FILLER_65_2
*5299 FILLER_65_66
*5300 FILLER_65_72
*5301 FILLER_65_937
*5302 FILLER_66_101
*5303 FILLER_66_107
*5304 FILLER_66_123
*5305 FILLER_66_1815
*5306 FILLER_66_1847
*5307 FILLER_66_1850
*5308 FILLER_66_1914
*5309 FILLER_66_1920
*5310 FILLER_66_1936
*5311 FILLER_66_2
*5312 FILLER_66_34
*5313 FILLER_66_37
*5314 FILLER_66_937
*5315 FILLER_66_969
*5316 FILLER_66_972
*5317 FILLER_66_988
*5318 FILLER_66_996
*5319 FILLER_67_104
*5320 FILLER_67_120
*5321 FILLER_67_124
*5322 FILLER_67_1815
*5323 FILLER_67_1879
*5324 FILLER_67_1885
*5325 FILLER_67_1917
*5326 FILLER_67_1933
*5327 FILLER_67_1937
*5328 FILLER_67_2
*5329 FILLER_67_66
*5330 FILLER_67_72
*5331 FILLER_67_987
*5332 FILLER_68_1000
*5333 FILLER_68_1002
*5334 FILLER_68_101
*5335 FILLER_68_107
*5336 FILLER_68_123
*5337 FILLER_68_1815
*5338 FILLER_68_1847
*5339 FILLER_68_1850
*5340 FILLER_68_1914
*5341 FILLER_68_1920
*5342 FILLER_68_1936
*5343 FILLER_68_2
*5344 FILLER_68_34
*5345 FILLER_68_37
*5346 FILLER_68_937
*5347 FILLER_68_969
*5348 FILLER_68_972
*5349 FILLER_68_988
*5350 FILLER_68_996
*5351 FILLER_69_104
*5352 FILLER_69_120
*5353 FILLER_69_124
*5354 FILLER_69_1815
*5355 FILLER_69_1879
*5356 FILLER_69_1885
*5357 FILLER_69_1917
*5358 FILLER_69_1933
*5359 FILLER_69_1937
*5360 FILLER_69_2
*5361 FILLER_69_66
*5362 FILLER_69_72
*5363 FILLER_69_937
*5364 FILLER_69_969
*5365 FILLER_69_985
*5366 FILLER_69_993
*5367 FILLER_69_997
*5368 FILLER_6_101
*5369 FILLER_6_107
*5370 FILLER_6_1165
*5371 FILLER_6_1198
*5372 FILLER_6_1206
*5373 FILLER_6_1208
*5374 FILLER_6_1217
*5375 FILLER_6_1227
*5376 FILLER_6_1236
*5377 FILLER_6_1268
*5378 FILLER_6_1284
*5379 FILLER_6_1292
*5380 FILLER_6_1294
*5381 FILLER_6_1297
*5382 FILLER_6_1361
*5383 FILLER_6_1367
*5384 FILLER_6_1431
*5385 FILLER_6_1437
*5386 FILLER_6_1501
*5387 FILLER_6_1507
*5388 FILLER_6_1539
*5389 FILLER_6_1555
*5390 FILLER_6_1563
*5391 FILLER_6_1577
*5392 FILLER_6_1641
*5393 FILLER_6_1647
*5394 FILLER_6_1659
*5395 FILLER_6_1668
*5396 FILLER_6_1700
*5397 FILLER_6_1704
*5398 FILLER_6_1706
*5399 FILLER_6_171
*5400 FILLER_6_1717
*5401 FILLER_6_177
*5402 FILLER_6_1781
*5403 FILLER_6_1787
*5404 FILLER_6_1851
*5405 FILLER_6_1857
*5406 FILLER_6_1921
*5407 FILLER_6_1927
*5408 FILLER_6_193
*5409 FILLER_6_1935
*5410 FILLER_6_1937
*5411 FILLER_6_2
*5412 FILLER_6_201
*5413 FILLER_6_205
*5414 FILLER_6_214
*5415 FILLER_6_230
*5416 FILLER_6_238
*5417 FILLER_6_242
*5418 FILLER_6_244
*5419 FILLER_6_247
*5420 FILLER_6_255
*5421 FILLER_6_264
*5422 FILLER_6_274
*5423 FILLER_6_306
*5424 FILLER_6_314
*5425 FILLER_6_317
*5426 FILLER_6_333
*5427 FILLER_6_34
*5428 FILLER_6_341
*5429 FILLER_6_343
*5430 FILLER_6_352
*5431 FILLER_6_37
*5432 FILLER_6_384
*5433 FILLER_6_387
*5434 FILLER_6_451
*5435 FILLER_6_457
*5436 FILLER_6_521
*5437 FILLER_6_527
*5438 FILLER_6_591
*5439 FILLER_6_597
*5440 FILLER_6_661
*5441 FILLER_6_667
*5442 FILLER_6_683
*5443 FILLER_6_687
*5444 FILLER_6_697
*5445 FILLER_6_729
*5446 FILLER_6_733
*5447 FILLER_6_737
*5448 FILLER_6_769
*5449 FILLER_6_773
*5450 FILLER_6_783
*5451 FILLER_6_795
*5452 FILLER_6_803
*5453 FILLER_6_807
*5454 FILLER_6_815
*5455 FILLER_6_817
*5456 FILLER_6_877
*5457 FILLER_6_926
*5458 FILLER_70_1000
*5459 FILLER_70_1002
*5460 FILLER_70_101
*5461 FILLER_70_107
*5462 FILLER_70_123
*5463 FILLER_70_1815
*5464 FILLER_70_1847
*5465 FILLER_70_1850
*5466 FILLER_70_1914
*5467 FILLER_70_1920
*5468 FILLER_70_1936
*5469 FILLER_70_2
*5470 FILLER_70_34
*5471 FILLER_70_37
*5472 FILLER_70_937
*5473 FILLER_70_969
*5474 FILLER_70_972
*5475 FILLER_70_988
*5476 FILLER_70_996
*5477 FILLER_71_1001
*5478 FILLER_71_104
*5479 FILLER_71_120
*5480 FILLER_71_124
*5481 FILLER_71_1815
*5482 FILLER_71_1879
*5483 FILLER_71_1885
*5484 FILLER_71_1917
*5485 FILLER_71_1933
*5486 FILLER_71_1937
*5487 FILLER_71_2
*5488 FILLER_71_66
*5489 FILLER_71_72
*5490 FILLER_71_937
*5491 FILLER_72_1000
*5492 FILLER_72_1002
*5493 FILLER_72_101
*5494 FILLER_72_107
*5495 FILLER_72_123
*5496 FILLER_72_1815
*5497 FILLER_72_1847
*5498 FILLER_72_1850
*5499 FILLER_72_1914
*5500 FILLER_72_1920
*5501 FILLER_72_1936
*5502 FILLER_72_2
*5503 FILLER_72_34
*5504 FILLER_72_37
*5505 FILLER_72_937
*5506 FILLER_72_969
*5507 FILLER_72_972
*5508 FILLER_72_988
*5509 FILLER_72_996
*5510 FILLER_73_1001
*5511 FILLER_73_104
*5512 FILLER_73_120
*5513 FILLER_73_124
*5514 FILLER_73_1815
*5515 FILLER_73_1879
*5516 FILLER_73_1885
*5517 FILLER_73_1917
*5518 FILLER_73_1933
*5519 FILLER_73_1937
*5520 FILLER_73_2
*5521 FILLER_73_66
*5522 FILLER_73_72
*5523 FILLER_73_937
*5524 FILLER_74_1000
*5525 FILLER_74_1002
*5526 FILLER_74_101
*5527 FILLER_74_107
*5528 FILLER_74_123
*5529 FILLER_74_1815
*5530 FILLER_74_1847
*5531 FILLER_74_1850
*5532 FILLER_74_1914
*5533 FILLER_74_1920
*5534 FILLER_74_1936
*5535 FILLER_74_2
*5536 FILLER_74_34
*5537 FILLER_74_37
*5538 FILLER_74_937
*5539 FILLER_74_969
*5540 FILLER_74_972
*5541 FILLER_74_988
*5542 FILLER_74_996
*5543 FILLER_75_1001
*5544 FILLER_75_104
*5545 FILLER_75_120
*5546 FILLER_75_124
*5547 FILLER_75_1815
*5548 FILLER_75_1879
*5549 FILLER_75_1885
*5550 FILLER_75_1917
*5551 FILLER_75_1933
*5552 FILLER_75_1937
*5553 FILLER_75_2
*5554 FILLER_75_66
*5555 FILLER_75_72
*5556 FILLER_75_937
*5557 FILLER_76_1000
*5558 FILLER_76_1002
*5559 FILLER_76_101
*5560 FILLER_76_107
*5561 FILLER_76_123
*5562 FILLER_76_1815
*5563 FILLER_76_1847
*5564 FILLER_76_1850
*5565 FILLER_76_1914
*5566 FILLER_76_1920
*5567 FILLER_76_1936
*5568 FILLER_76_2
*5569 FILLER_76_34
*5570 FILLER_76_37
*5571 FILLER_76_937
*5572 FILLER_76_969
*5573 FILLER_76_972
*5574 FILLER_76_988
*5575 FILLER_76_996
*5576 FILLER_77_1001
*5577 FILLER_77_104
*5578 FILLER_77_120
*5579 FILLER_77_124
*5580 FILLER_77_1815
*5581 FILLER_77_1879
*5582 FILLER_77_1885
*5583 FILLER_77_1917
*5584 FILLER_77_1933
*5585 FILLER_77_1937
*5586 FILLER_77_2
*5587 FILLER_77_66
*5588 FILLER_77_72
*5589 FILLER_77_937
*5590 FILLER_78_1000
*5591 FILLER_78_1002
*5592 FILLER_78_101
*5593 FILLER_78_107
*5594 FILLER_78_123
*5595 FILLER_78_1815
*5596 FILLER_78_1847
*5597 FILLER_78_1850
*5598 FILLER_78_1914
*5599 FILLER_78_1920
*5600 FILLER_78_1936
*5601 FILLER_78_2
*5602 FILLER_78_34
*5603 FILLER_78_37
*5604 FILLER_78_937
*5605 FILLER_78_969
*5606 FILLER_78_972
*5607 FILLER_78_988
*5608 FILLER_78_996
*5609 FILLER_79_1001
*5610 FILLER_79_104
*5611 FILLER_79_120
*5612 FILLER_79_124
*5613 FILLER_79_1815
*5614 FILLER_79_1879
*5615 FILLER_79_1885
*5616 FILLER_79_1917
*5617 FILLER_79_1933
*5618 FILLER_79_1937
*5619 FILLER_79_2
*5620 FILLER_79_66
*5621 FILLER_79_72
*5622 FILLER_79_937
*5623 FILLER_7_1025
*5624 FILLER_7_1132
*5625 FILLER_7_1177
*5626 FILLER_7_1185
*5627 FILLER_7_1189
*5628 FILLER_7_1192
*5629 FILLER_7_1256
*5630 FILLER_7_1262
*5631 FILLER_7_1326
*5632 FILLER_7_1332
*5633 FILLER_7_136
*5634 FILLER_7_1396
*5635 FILLER_7_1402
*5636 FILLER_7_142
*5637 FILLER_7_1466
*5638 FILLER_7_1472
*5639 FILLER_7_1488
*5640 FILLER_7_1521
*5641 FILLER_7_1537
*5642 FILLER_7_1539
*5643 FILLER_7_1542
*5644 FILLER_7_1606
*5645 FILLER_7_1612
*5646 FILLER_7_1676
*5647 FILLER_7_1682
*5648 FILLER_7_1746
*5649 FILLER_7_1752
*5650 FILLER_7_1816
*5651 FILLER_7_1822
*5652 FILLER_7_1886
*5653 FILLER_7_1892
*5654 FILLER_7_1924
*5655 FILLER_7_1932
*5656 FILLER_7_1936
*5657 FILLER_7_2
*5658 FILLER_7_206
*5659 FILLER_7_212
*5660 FILLER_7_276
*5661 FILLER_7_282
*5662 FILLER_7_346
*5663 FILLER_7_352
*5664 FILLER_7_384
*5665 FILLER_7_415
*5666 FILLER_7_419
*5667 FILLER_7_422
*5668 FILLER_7_486
*5669 FILLER_7_492
*5670 FILLER_7_556
*5671 FILLER_7_562
*5672 FILLER_7_626
*5673 FILLER_7_632
*5674 FILLER_7_66
*5675 FILLER_7_696
*5676 FILLER_7_702
*5677 FILLER_7_72
*5678 FILLER_7_726
*5679 FILLER_7_758
*5680 FILLER_7_766
*5681 FILLER_7_772
*5682 FILLER_7_788
*5683 FILLER_80_1000
*5684 FILLER_80_1002
*5685 FILLER_80_101
*5686 FILLER_80_107
*5687 FILLER_80_123
*5688 FILLER_80_1815
*5689 FILLER_80_1847
*5690 FILLER_80_1850
*5691 FILLER_80_1914
*5692 FILLER_80_1920
*5693 FILLER_80_1936
*5694 FILLER_80_2
*5695 FILLER_80_34
*5696 FILLER_80_37
*5697 FILLER_80_937
*5698 FILLER_80_969
*5699 FILLER_80_972
*5700 FILLER_80_988
*5701 FILLER_80_996
*5702 FILLER_81_1001
*5703 FILLER_81_104
*5704 FILLER_81_120
*5705 FILLER_81_124
*5706 FILLER_81_1815
*5707 FILLER_81_1879
*5708 FILLER_81_1885
*5709 FILLER_81_1917
*5710 FILLER_81_1933
*5711 FILLER_81_1937
*5712 FILLER_81_2
*5713 FILLER_81_66
*5714 FILLER_81_72
*5715 FILLER_81_937
*5716 FILLER_82_1000
*5717 FILLER_82_1002
*5718 FILLER_82_101
*5719 FILLER_82_107
*5720 FILLER_82_123
*5721 FILLER_82_1815
*5722 FILLER_82_1847
*5723 FILLER_82_1850
*5724 FILLER_82_1914
*5725 FILLER_82_1920
*5726 FILLER_82_1936
*5727 FILLER_82_2
*5728 FILLER_82_34
*5729 FILLER_82_37
*5730 FILLER_82_937
*5731 FILLER_82_969
*5732 FILLER_82_972
*5733 FILLER_82_988
*5734 FILLER_82_996
*5735 FILLER_83_104
*5736 FILLER_83_120
*5737 FILLER_83_124
*5738 FILLER_83_1815
*5739 FILLER_83_1879
*5740 FILLER_83_1885
*5741 FILLER_83_1917
*5742 FILLER_83_1933
*5743 FILLER_83_1937
*5744 FILLER_83_2
*5745 FILLER_83_66
*5746 FILLER_83_72
*5747 FILLER_83_937
*5748 FILLER_84_1000
*5749 FILLER_84_1002
*5750 FILLER_84_101
*5751 FILLER_84_107
*5752 FILLER_84_123
*5753 FILLER_84_1815
*5754 FILLER_84_1847
*5755 FILLER_84_1850
*5756 FILLER_84_1914
*5757 FILLER_84_1920
*5758 FILLER_84_1936
*5759 FILLER_84_2
*5760 FILLER_84_34
*5761 FILLER_84_37
*5762 FILLER_84_937
*5763 FILLER_84_969
*5764 FILLER_84_972
*5765 FILLER_84_988
*5766 FILLER_84_996
*5767 FILLER_85_1001
*5768 FILLER_85_104
*5769 FILLER_85_120
*5770 FILLER_85_124
*5771 FILLER_85_1815
*5772 FILLER_85_1879
*5773 FILLER_85_1885
*5774 FILLER_85_1917
*5775 FILLER_85_1933
*5776 FILLER_85_1937
*5777 FILLER_85_2
*5778 FILLER_85_66
*5779 FILLER_85_72
*5780 FILLER_85_937
*5781 FILLER_86_1000
*5782 FILLER_86_1002
*5783 FILLER_86_101
*5784 FILLER_86_107
*5785 FILLER_86_123
*5786 FILLER_86_1815
*5787 FILLER_86_1847
*5788 FILLER_86_1850
*5789 FILLER_86_1914
*5790 FILLER_86_1920
*5791 FILLER_86_1936
*5792 FILLER_86_2
*5793 FILLER_86_34
*5794 FILLER_86_37
*5795 FILLER_86_937
*5796 FILLER_86_969
*5797 FILLER_86_972
*5798 FILLER_86_988
*5799 FILLER_86_996
*5800 FILLER_87_1001
*5801 FILLER_87_104
*5802 FILLER_87_120
*5803 FILLER_87_124
*5804 FILLER_87_1815
*5805 FILLER_87_1879
*5806 FILLER_87_1885
*5807 FILLER_87_1917
*5808 FILLER_87_1933
*5809 FILLER_87_1937
*5810 FILLER_87_2
*5811 FILLER_87_66
*5812 FILLER_87_72
*5813 FILLER_87_937
*5814 FILLER_88_1000
*5815 FILLER_88_1002
*5816 FILLER_88_101
*5817 FILLER_88_107
*5818 FILLER_88_123
*5819 FILLER_88_1815
*5820 FILLER_88_1847
*5821 FILLER_88_1850
*5822 FILLER_88_1914
*5823 FILLER_88_1920
*5824 FILLER_88_1936
*5825 FILLER_88_2
*5826 FILLER_88_34
*5827 FILLER_88_37
*5828 FILLER_88_937
*5829 FILLER_88_969
*5830 FILLER_88_972
*5831 FILLER_88_988
*5832 FILLER_88_996
*5833 FILLER_89_1001
*5834 FILLER_89_104
*5835 FILLER_89_120
*5836 FILLER_89_124
*5837 FILLER_89_1815
*5838 FILLER_89_1879
*5839 FILLER_89_1885
*5840 FILLER_89_1917
*5841 FILLER_89_1933
*5842 FILLER_89_1937
*5843 FILLER_89_2
*5844 FILLER_89_66
*5845 FILLER_89_72
*5846 FILLER_89_937
*5847 FILLER_8_101
*5848 FILLER_8_107
*5849 FILLER_8_1087
*5850 FILLER_8_1089
*5851 FILLER_8_1119
*5852 FILLER_8_1121
*5853 FILLER_8_1151
*5854 FILLER_8_1186
*5855 FILLER_8_1218
*5856 FILLER_8_1222
*5857 FILLER_8_1224
*5858 FILLER_8_1227
*5859 FILLER_8_1291
*5860 FILLER_8_1297
*5861 FILLER_8_1361
*5862 FILLER_8_1367
*5863 FILLER_8_1431
*5864 FILLER_8_1437
*5865 FILLER_8_1453
*5866 FILLER_8_1457
*5867 FILLER_8_1459
*5868 FILLER_8_1489
*5869 FILLER_8_1565
*5870 FILLER_8_1573
*5871 FILLER_8_1577
*5872 FILLER_8_1641
*5873 FILLER_8_1647
*5874 FILLER_8_171
*5875 FILLER_8_1711
*5876 FILLER_8_1717
*5877 FILLER_8_177
*5878 FILLER_8_1781
*5879 FILLER_8_1787
*5880 FILLER_8_1851
*5881 FILLER_8_1857
*5882 FILLER_8_1921
*5883 FILLER_8_1927
*5884 FILLER_8_1935
*5885 FILLER_8_1937
*5886 FILLER_8_2
*5887 FILLER_8_241
*5888 FILLER_8_247
*5889 FILLER_8_311
*5890 FILLER_8_317
*5891 FILLER_8_333
*5892 FILLER_8_337
*5893 FILLER_8_339
*5894 FILLER_8_34
*5895 FILLER_8_369
*5896 FILLER_8_37
*5897 FILLER_8_377
*5898 FILLER_8_379
*5899 FILLER_8_387
*5900 FILLER_8_391
*5901 FILLER_8_398
*5902 FILLER_8_406
*5903 FILLER_8_437
*5904 FILLER_8_453
*5905 FILLER_8_457
*5906 FILLER_8_521
*5907 FILLER_8_527
*5908 FILLER_8_591
*5909 FILLER_8_597
*5910 FILLER_8_661
*5911 FILLER_8_667
*5912 FILLER_8_731
*5913 FILLER_8_737
*5914 FILLER_8_769
*5915 FILLER_90_1000
*5916 FILLER_90_1002
*5917 FILLER_90_101
*5918 FILLER_90_107
*5919 FILLER_90_123
*5920 FILLER_90_1815
*5921 FILLER_90_1847
*5922 FILLER_90_1850
*5923 FILLER_90_1914
*5924 FILLER_90_1920
*5925 FILLER_90_1936
*5926 FILLER_90_2
*5927 FILLER_90_34
*5928 FILLER_90_37
*5929 FILLER_90_937
*5930 FILLER_90_969
*5931 FILLER_90_972
*5932 FILLER_90_988
*5933 FILLER_90_996
*5934 FILLER_91_1001
*5935 FILLER_91_104
*5936 FILLER_91_120
*5937 FILLER_91_124
*5938 FILLER_91_1815
*5939 FILLER_91_1879
*5940 FILLER_91_1885
*5941 FILLER_91_1917
*5942 FILLER_91_1933
*5943 FILLER_91_1937
*5944 FILLER_91_2
*5945 FILLER_91_66
*5946 FILLER_91_72
*5947 FILLER_91_937
*5948 FILLER_92_1000
*5949 FILLER_92_1002
*5950 FILLER_92_101
*5951 FILLER_92_107
*5952 FILLER_92_123
*5953 FILLER_92_1815
*5954 FILLER_92_1847
*5955 FILLER_92_1850
*5956 FILLER_92_1914
*5957 FILLER_92_1920
*5958 FILLER_92_1936
*5959 FILLER_92_2
*5960 FILLER_92_34
*5961 FILLER_92_37
*5962 FILLER_92_937
*5963 FILLER_92_969
*5964 FILLER_92_972
*5965 FILLER_92_988
*5966 FILLER_92_996
*5967 FILLER_93_1001
*5968 FILLER_93_104
*5969 FILLER_93_120
*5970 FILLER_93_124
*5971 FILLER_93_1815
*5972 FILLER_93_1879
*5973 FILLER_93_1885
*5974 FILLER_93_1917
*5975 FILLER_93_1933
*5976 FILLER_93_1937
*5977 FILLER_93_2
*5978 FILLER_93_66
*5979 FILLER_93_72
*5980 FILLER_93_937
*5981 FILLER_94_1000
*5982 FILLER_94_1002
*5983 FILLER_94_101
*5984 FILLER_94_107
*5985 FILLER_94_123
*5986 FILLER_94_1815
*5987 FILLER_94_1847
*5988 FILLER_94_1850
*5989 FILLER_94_1914
*5990 FILLER_94_1920
*5991 FILLER_94_1936
*5992 FILLER_94_2
*5993 FILLER_94_34
*5994 FILLER_94_37
*5995 FILLER_94_937
*5996 FILLER_94_969
*5997 FILLER_94_972
*5998 FILLER_94_988
*5999 FILLER_94_996
*6000 FILLER_95_1001
*6001 FILLER_95_104
*6002 FILLER_95_120
*6003 FILLER_95_124
*6004 FILLER_95_1815
*6005 FILLER_95_1879
*6006 FILLER_95_1885
*6007 FILLER_95_1917
*6008 FILLER_95_1933
*6009 FILLER_95_1937
*6010 FILLER_95_2
*6011 FILLER_95_66
*6012 FILLER_95_72
*6013 FILLER_95_937
*6014 FILLER_96_1000
*6015 FILLER_96_1002
*6016 FILLER_96_101
*6017 FILLER_96_107
*6018 FILLER_96_123
*6019 FILLER_96_1815
*6020 FILLER_96_1847
*6021 FILLER_96_1850
*6022 FILLER_96_1914
*6023 FILLER_96_1920
*6024 FILLER_96_1936
*6025 FILLER_96_2
*6026 FILLER_96_34
*6027 FILLER_96_37
*6028 FILLER_96_937
*6029 FILLER_96_969
*6030 FILLER_96_972
*6031 FILLER_96_988
*6032 FILLER_96_996
*6033 FILLER_97_104
*6034 FILLER_97_120
*6035 FILLER_97_124
*6036 FILLER_97_1815
*6037 FILLER_97_1879
*6038 FILLER_97_1885
*6039 FILLER_97_1917
*6040 FILLER_97_1933
*6041 FILLER_97_1937
*6042 FILLER_97_2
*6043 FILLER_97_66
*6044 FILLER_97_72
*6045 FILLER_97_987
*6046 FILLER_97_995
*6047 FILLER_98_1000
*6048 FILLER_98_1002
*6049 FILLER_98_101
*6050 FILLER_98_107
*6051 FILLER_98_123
*6052 FILLER_98_1815
*6053 FILLER_98_1847
*6054 FILLER_98_1850
*6055 FILLER_98_1914
*6056 FILLER_98_1920
*6057 FILLER_98_1936
*6058 FILLER_98_2
*6059 FILLER_98_34
*6060 FILLER_98_37
*6061 FILLER_98_937
*6062 FILLER_98_969
*6063 FILLER_98_972
*6064 FILLER_98_988
*6065 FILLER_98_996
*6066 FILLER_99_1001
*6067 FILLER_99_104
*6068 FILLER_99_120
*6069 FILLER_99_124
*6070 FILLER_99_1815
*6071 FILLER_99_1879
*6072 FILLER_99_1885
*6073 FILLER_99_1917
*6074 FILLER_99_1933
*6075 FILLER_99_1937
*6076 FILLER_99_2
*6077 FILLER_99_66
*6078 FILLER_99_72
*6079 FILLER_99_937
*6080 FILLER_9_1115
*6081 FILLER_9_1119
*6082 FILLER_9_1166
*6083 FILLER_9_1168
*6084 FILLER_9_1188
*6085 FILLER_9_1197
*6086 FILLER_9_1229
*6087 FILLER_9_1245
*6088 FILLER_9_1253
*6089 FILLER_9_1257
*6090 FILLER_9_1259
*6091 FILLER_9_1262
*6092 FILLER_9_1326
*6093 FILLER_9_1332
*6094 FILLER_9_1348
*6095 FILLER_9_136
*6096 FILLER_9_1363
*6097 FILLER_9_1395
*6098 FILLER_9_1399
*6099 FILLER_9_1402
*6100 FILLER_9_142
*6101 FILLER_9_1466
*6102 FILLER_9_1472
*6103 FILLER_9_1498
*6104 FILLER_9_1514
*6105 FILLER_9_1518
*6106 FILLER_9_1520
*6107 FILLER_9_1526
*6108 FILLER_9_1528
*6109 FILLER_9_1539
*6110 FILLER_9_1542
*6111 FILLER_9_1550
*6112 FILLER_9_1564
*6113 FILLER_9_1596
*6114 FILLER_9_1604
*6115 FILLER_9_1608
*6116 FILLER_9_1612
*6117 FILLER_9_1676
*6118 FILLER_9_1682
*6119 FILLER_9_1746
*6120 FILLER_9_1752
*6121 FILLER_9_1816
*6122 FILLER_9_1822
*6123 FILLER_9_1886
*6124 FILLER_9_1892
*6125 FILLER_9_1924
*6126 FILLER_9_1932
*6127 FILLER_9_1936
*6128 FILLER_9_2
*6129 FILLER_9_206
*6130 FILLER_9_212
*6131 FILLER_9_276
*6132 FILLER_9_282
*6133 FILLER_9_314
*6134 FILLER_9_330
*6135 FILLER_9_343
*6136 FILLER_9_347
*6137 FILLER_9_349
*6138 FILLER_9_357
*6139 FILLER_9_365
*6140 FILLER_9_400
*6141 FILLER_9_404
*6142 FILLER_9_411
*6143 FILLER_9_422
*6144 FILLER_9_486
*6145 FILLER_9_492
*6146 FILLER_9_556
*6147 FILLER_9_562
*6148 FILLER_9_626
*6149 FILLER_9_632
*6150 FILLER_9_66
*6151 FILLER_9_696
*6152 FILLER_9_702
*6153 FILLER_9_72
*6154 FILLER_9_766
*6155 FILLER_9_772
*6156 FILLER_9_779
*6157 FILLER_9_781
*6158 FILLER_9_787
*6159 FILLER_9_829
*6160 FILLER_9_982
*6161 PHY_EDGE_ROW_0_Left_221
*6162 PHY_EDGE_ROW_0_Right_0
*6163 PHY_EDGE_ROW_100_1_Left_320
*6164 PHY_EDGE_ROW_100_1_Right_621
*6165 PHY_EDGE_ROW_100_2_Left_529
*6166 PHY_EDGE_ROW_100_2_Right_808
*6167 PHY_EDGE_ROW_100_3_Left_715
*6168 PHY_EDGE_ROW_100_3_Right_122
*6169 PHY_EDGE_ROW_101_1_Left_321
*6170 PHY_EDGE_ROW_101_1_Right_622
*6171 PHY_EDGE_ROW_101_2_Left_530
*6172 PHY_EDGE_ROW_101_2_Right_809
*6173 PHY_EDGE_ROW_101_3_Left_716
*6174 PHY_EDGE_ROW_101_3_Right_123
*6175 PHY_EDGE_ROW_102_1_Left_322
*6176 PHY_EDGE_ROW_102_1_Right_623
*6177 PHY_EDGE_ROW_102_2_Left_531
*6178 PHY_EDGE_ROW_102_2_Right_810
*6179 PHY_EDGE_ROW_102_3_Left_717
*6180 PHY_EDGE_ROW_102_3_Right_124
*6181 PHY_EDGE_ROW_103_1_Left_323
*6182 PHY_EDGE_ROW_103_1_Right_624
*6183 PHY_EDGE_ROW_103_2_Left_532
*6184 PHY_EDGE_ROW_103_2_Right_811
*6185 PHY_EDGE_ROW_103_3_Left_718
*6186 PHY_EDGE_ROW_103_3_Right_125
*6187 PHY_EDGE_ROW_104_1_Left_324
*6188 PHY_EDGE_ROW_104_1_Right_625
*6189 PHY_EDGE_ROW_104_2_Left_533
*6190 PHY_EDGE_ROW_104_2_Right_812
*6191 PHY_EDGE_ROW_104_3_Left_719
*6192 PHY_EDGE_ROW_104_3_Right_126
*6193 PHY_EDGE_ROW_105_1_Left_325
*6194 PHY_EDGE_ROW_105_1_Right_626
*6195 PHY_EDGE_ROW_105_2_Left_534
*6196 PHY_EDGE_ROW_105_2_Right_813
*6197 PHY_EDGE_ROW_105_3_Left_720
*6198 PHY_EDGE_ROW_105_3_Right_127
*6199 PHY_EDGE_ROW_106_Left_327
*6200 PHY_EDGE_ROW_106_Right_13
*6201 PHY_EDGE_ROW_107_Left_328
*6202 PHY_EDGE_ROW_107_Right_14
*6203 PHY_EDGE_ROW_108_Left_329
*6204 PHY_EDGE_ROW_108_Right_15
*6205 PHY_EDGE_ROW_109_Left_330
*6206 PHY_EDGE_ROW_109_Right_16
*6207 PHY_EDGE_ROW_10_Left_231
*6208 PHY_EDGE_ROW_10_Right_10
*6209 PHY_EDGE_ROW_110_Left_331
*6210 PHY_EDGE_ROW_110_Right_17
*6211 PHY_EDGE_ROW_111_Left_332
*6212 PHY_EDGE_ROW_111_Right_18
*6213 PHY_EDGE_ROW_112_Left_333
*6214 PHY_EDGE_ROW_112_Right_19
*6215 PHY_EDGE_ROW_113_Left_334
*6216 PHY_EDGE_ROW_113_Right_20
*6217 PHY_EDGE_ROW_114_Left_335
*6218 PHY_EDGE_ROW_114_Right_21
*6219 PHY_EDGE_ROW_115_1_Left_326
*6220 PHY_EDGE_ROW_115_1_Right_907
*6221 PHY_EDGE_ROW_115_2_Left_814
*6222 PHY_EDGE_ROW_115_2_Right_1093
*6223 PHY_EDGE_ROW_115_3_Left_1000
*6224 PHY_EDGE_ROW_115_3_Right_128
*6225 PHY_EDGE_ROW_116_1_Left_336
*6226 PHY_EDGE_ROW_116_1_Right_908
*6227 PHY_EDGE_ROW_116_2_Left_815
*6228 PHY_EDGE_ROW_116_2_Right_1094
*6229 PHY_EDGE_ROW_116_3_Left_1001
*6230 PHY_EDGE_ROW_116_3_Right_129
*6231 PHY_EDGE_ROW_117_1_Left_337
*6232 PHY_EDGE_ROW_117_1_Right_909
*6233 PHY_EDGE_ROW_117_2_Left_816
*6234 PHY_EDGE_ROW_117_2_Right_1095
*6235 PHY_EDGE_ROW_117_3_Left_1002
*6236 PHY_EDGE_ROW_117_3_Right_130
*6237 PHY_EDGE_ROW_118_1_Left_338
*6238 PHY_EDGE_ROW_118_1_Right_910
*6239 PHY_EDGE_ROW_118_2_Left_817
*6240 PHY_EDGE_ROW_118_2_Right_1096
*6241 PHY_EDGE_ROW_118_3_Left_1003
*6242 PHY_EDGE_ROW_118_3_Right_131
*6243 PHY_EDGE_ROW_119_1_Left_339
*6244 PHY_EDGE_ROW_119_1_Right_911
*6245 PHY_EDGE_ROW_119_2_Left_818
*6246 PHY_EDGE_ROW_119_2_Right_1097
*6247 PHY_EDGE_ROW_119_3_Left_1004
*6248 PHY_EDGE_ROW_119_3_Right_132
*6249 PHY_EDGE_ROW_11_Left_232
*6250 PHY_EDGE_ROW_11_Right_11
*6251 PHY_EDGE_ROW_120_1_Left_340
*6252 PHY_EDGE_ROW_120_1_Right_912
*6253 PHY_EDGE_ROW_120_2_Left_819
*6254 PHY_EDGE_ROW_120_2_Right_1098
*6255 PHY_EDGE_ROW_120_3_Left_1005
*6256 PHY_EDGE_ROW_120_3_Right_133
*6257 PHY_EDGE_ROW_121_1_Left_341
*6258 PHY_EDGE_ROW_121_1_Right_913
*6259 PHY_EDGE_ROW_121_2_Left_820
*6260 PHY_EDGE_ROW_121_2_Right_1099
*6261 PHY_EDGE_ROW_121_3_Left_1006
*6262 PHY_EDGE_ROW_121_3_Right_134
*6263 PHY_EDGE_ROW_122_1_Left_342
*6264 PHY_EDGE_ROW_122_1_Right_914
*6265 PHY_EDGE_ROW_122_2_Left_821
*6266 PHY_EDGE_ROW_122_2_Right_1100
*6267 PHY_EDGE_ROW_122_3_Left_1007
*6268 PHY_EDGE_ROW_122_3_Right_135
*6269 PHY_EDGE_ROW_123_1_Left_343
*6270 PHY_EDGE_ROW_123_1_Right_915
*6271 PHY_EDGE_ROW_123_2_Left_822
*6272 PHY_EDGE_ROW_123_2_Right_1101
*6273 PHY_EDGE_ROW_123_3_Left_1008
*6274 PHY_EDGE_ROW_123_3_Right_136
*6275 PHY_EDGE_ROW_124_1_Left_344
*6276 PHY_EDGE_ROW_124_1_Right_916
*6277 PHY_EDGE_ROW_124_2_Left_823
*6278 PHY_EDGE_ROW_124_2_Right_1102
*6279 PHY_EDGE_ROW_124_3_Left_1009
*6280 PHY_EDGE_ROW_124_3_Right_137
*6281 PHY_EDGE_ROW_125_1_Left_345
*6282 PHY_EDGE_ROW_125_1_Right_917
*6283 PHY_EDGE_ROW_125_2_Left_824
*6284 PHY_EDGE_ROW_125_2_Right_1103
*6285 PHY_EDGE_ROW_125_3_Left_1010
*6286 PHY_EDGE_ROW_125_3_Right_138
*6287 PHY_EDGE_ROW_126_1_Left_346
*6288 PHY_EDGE_ROW_126_1_Right_918
*6289 PHY_EDGE_ROW_126_2_Left_825
*6290 PHY_EDGE_ROW_126_2_Right_1104
*6291 PHY_EDGE_ROW_126_3_Left_1011
*6292 PHY_EDGE_ROW_126_3_Right_139
*6293 PHY_EDGE_ROW_127_1_Left_347
*6294 PHY_EDGE_ROW_127_1_Right_919
*6295 PHY_EDGE_ROW_127_2_Left_826
*6296 PHY_EDGE_ROW_127_2_Right_1105
*6297 PHY_EDGE_ROW_127_3_Left_1012
*6298 PHY_EDGE_ROW_127_3_Right_140
*6299 PHY_EDGE_ROW_128_1_Left_348
*6300 PHY_EDGE_ROW_128_1_Right_920
*6301 PHY_EDGE_ROW_128_2_Left_827
*6302 PHY_EDGE_ROW_128_2_Right_1106
*6303 PHY_EDGE_ROW_128_3_Left_1013
*6304 PHY_EDGE_ROW_128_3_Right_141
*6305 PHY_EDGE_ROW_129_1_Left_349
*6306 PHY_EDGE_ROW_129_1_Right_921
*6307 PHY_EDGE_ROW_129_2_Left_828
*6308 PHY_EDGE_ROW_129_2_Right_1107
*6309 PHY_EDGE_ROW_129_3_Left_1014
*6310 PHY_EDGE_ROW_129_3_Right_142
*6311 PHY_EDGE_ROW_12_Left_233
*6312 PHY_EDGE_ROW_12_Right_12
*6313 PHY_EDGE_ROW_130_1_Left_350
*6314 PHY_EDGE_ROW_130_1_Right_922
*6315 PHY_EDGE_ROW_130_2_Left_829
*6316 PHY_EDGE_ROW_130_2_Right_1108
*6317 PHY_EDGE_ROW_130_3_Left_1015
*6318 PHY_EDGE_ROW_130_3_Right_143
*6319 PHY_EDGE_ROW_131_1_Left_351
*6320 PHY_EDGE_ROW_131_1_Right_923
*6321 PHY_EDGE_ROW_131_2_Left_830
*6322 PHY_EDGE_ROW_131_2_Right_1109
*6323 PHY_EDGE_ROW_131_3_Left_1016
*6324 PHY_EDGE_ROW_131_3_Right_144
*6325 PHY_EDGE_ROW_132_1_Left_352
*6326 PHY_EDGE_ROW_132_1_Right_924
*6327 PHY_EDGE_ROW_132_2_Left_831
*6328 PHY_EDGE_ROW_132_2_Right_1110
*6329 PHY_EDGE_ROW_132_3_Left_1017
*6330 PHY_EDGE_ROW_132_3_Right_145
*6331 PHY_EDGE_ROW_133_1_Left_353
*6332 PHY_EDGE_ROW_133_1_Right_925
*6333 PHY_EDGE_ROW_133_2_Left_832
*6334 PHY_EDGE_ROW_133_2_Right_1111
*6335 PHY_EDGE_ROW_133_3_Left_1018
*6336 PHY_EDGE_ROW_133_3_Right_146
*6337 PHY_EDGE_ROW_134_1_Left_354
*6338 PHY_EDGE_ROW_134_1_Right_926
*6339 PHY_EDGE_ROW_134_2_Left_833
*6340 PHY_EDGE_ROW_134_2_Right_1112
*6341 PHY_EDGE_ROW_134_3_Left_1019
*6342 PHY_EDGE_ROW_134_3_Right_147
*6343 PHY_EDGE_ROW_135_1_Left_355
*6344 PHY_EDGE_ROW_135_1_Right_927
*6345 PHY_EDGE_ROW_135_2_Left_834
*6346 PHY_EDGE_ROW_135_2_Right_1113
*6347 PHY_EDGE_ROW_135_3_Left_1020
*6348 PHY_EDGE_ROW_135_3_Right_148
*6349 PHY_EDGE_ROW_136_1_Left_356
*6350 PHY_EDGE_ROW_136_1_Right_928
*6351 PHY_EDGE_ROW_136_2_Left_835
*6352 PHY_EDGE_ROW_136_2_Right_1114
*6353 PHY_EDGE_ROW_136_3_Left_1021
*6354 PHY_EDGE_ROW_136_3_Right_149
*6355 PHY_EDGE_ROW_137_1_Left_357
*6356 PHY_EDGE_ROW_137_1_Right_929
*6357 PHY_EDGE_ROW_137_2_Left_836
*6358 PHY_EDGE_ROW_137_2_Right_1115
*6359 PHY_EDGE_ROW_137_3_Left_1022
*6360 PHY_EDGE_ROW_137_3_Right_150
*6361 PHY_EDGE_ROW_138_1_Left_358
*6362 PHY_EDGE_ROW_138_1_Right_930
*6363 PHY_EDGE_ROW_138_2_Left_837
*6364 PHY_EDGE_ROW_138_2_Right_1116
*6365 PHY_EDGE_ROW_138_3_Left_1023
*6366 PHY_EDGE_ROW_138_3_Right_151
*6367 PHY_EDGE_ROW_139_1_Left_359
*6368 PHY_EDGE_ROW_139_1_Right_931
*6369 PHY_EDGE_ROW_139_2_Left_838
*6370 PHY_EDGE_ROW_139_2_Right_1117
*6371 PHY_EDGE_ROW_139_3_Left_1024
*6372 PHY_EDGE_ROW_139_3_Right_152
*6373 PHY_EDGE_ROW_13_1_Left_441
*6374 PHY_EDGE_ROW_13_1_Right_627
*6375 PHY_EDGE_ROW_13_2_Left_442
*6376 PHY_EDGE_ROW_13_2_Right_721
*6377 PHY_EDGE_ROW_13_3_Left_628
*6378 PHY_EDGE_ROW_13_3_Right_35
*6379 PHY_EDGE_ROW_140_1_Left_360
*6380 PHY_EDGE_ROW_140_1_Right_932
*6381 PHY_EDGE_ROW_140_2_Left_839
*6382 PHY_EDGE_ROW_140_2_Right_1118
*6383 PHY_EDGE_ROW_140_3_Left_1025
*6384 PHY_EDGE_ROW_140_3_Right_153
*6385 PHY_EDGE_ROW_141_1_Left_361
*6386 PHY_EDGE_ROW_141_1_Right_933
*6387 PHY_EDGE_ROW_141_2_Left_840
*6388 PHY_EDGE_ROW_141_2_Right_1119
*6389 PHY_EDGE_ROW_141_3_Left_1026
*6390 PHY_EDGE_ROW_141_3_Right_154
*6391 PHY_EDGE_ROW_142_1_Left_362
*6392 PHY_EDGE_ROW_142_1_Right_934
*6393 PHY_EDGE_ROW_142_2_Left_841
*6394 PHY_EDGE_ROW_142_2_Right_1120
*6395 PHY_EDGE_ROW_142_3_Left_1027
*6396 PHY_EDGE_ROW_142_3_Right_155
*6397 PHY_EDGE_ROW_143_1_Left_363
*6398 PHY_EDGE_ROW_143_1_Right_935
*6399 PHY_EDGE_ROW_143_2_Left_842
*6400 PHY_EDGE_ROW_143_2_Right_1121
*6401 PHY_EDGE_ROW_143_3_Left_1028
*6402 PHY_EDGE_ROW_143_3_Right_156
*6403 PHY_EDGE_ROW_144_1_Left_364
*6404 PHY_EDGE_ROW_144_1_Right_936
*6405 PHY_EDGE_ROW_144_2_Left_843
*6406 PHY_EDGE_ROW_144_2_Right_1122
*6407 PHY_EDGE_ROW_144_3_Left_1029
*6408 PHY_EDGE_ROW_144_3_Right_157
*6409 PHY_EDGE_ROW_145_1_Left_365
*6410 PHY_EDGE_ROW_145_1_Right_937
*6411 PHY_EDGE_ROW_145_2_Left_844
*6412 PHY_EDGE_ROW_145_2_Right_1123
*6413 PHY_EDGE_ROW_145_3_Left_1030
*6414 PHY_EDGE_ROW_145_3_Right_158
*6415 PHY_EDGE_ROW_146_1_Left_366
*6416 PHY_EDGE_ROW_146_1_Right_938
*6417 PHY_EDGE_ROW_146_2_Left_845
*6418 PHY_EDGE_ROW_146_2_Right_1124
*6419 PHY_EDGE_ROW_146_3_Left_1031
*6420 PHY_EDGE_ROW_146_3_Right_159
*6421 PHY_EDGE_ROW_147_1_Left_367
*6422 PHY_EDGE_ROW_147_1_Right_939
*6423 PHY_EDGE_ROW_147_2_Left_846
*6424 PHY_EDGE_ROW_147_2_Right_1125
*6425 PHY_EDGE_ROW_147_3_Left_1032
*6426 PHY_EDGE_ROW_147_3_Right_160
*6427 PHY_EDGE_ROW_148_1_Left_368
*6428 PHY_EDGE_ROW_148_1_Right_940
*6429 PHY_EDGE_ROW_148_2_Left_847
*6430 PHY_EDGE_ROW_148_2_Right_1126
*6431 PHY_EDGE_ROW_148_3_Left_1033
*6432 PHY_EDGE_ROW_148_3_Right_161
*6433 PHY_EDGE_ROW_149_1_Left_369
*6434 PHY_EDGE_ROW_149_1_Right_941
*6435 PHY_EDGE_ROW_149_2_Left_848
*6436 PHY_EDGE_ROW_149_2_Right_1127
*6437 PHY_EDGE_ROW_149_3_Left_1034
*6438 PHY_EDGE_ROW_149_3_Right_162
*6439 PHY_EDGE_ROW_14_1_Left_234
*6440 PHY_EDGE_ROW_14_1_Right_535
*6441 PHY_EDGE_ROW_14_2_Left_443
*6442 PHY_EDGE_ROW_14_2_Right_722
*6443 PHY_EDGE_ROW_14_3_Left_629
*6444 PHY_EDGE_ROW_14_3_Right_36
*6445 PHY_EDGE_ROW_150_1_Left_370
*6446 PHY_EDGE_ROW_150_1_Right_942
*6447 PHY_EDGE_ROW_150_2_Left_849
*6448 PHY_EDGE_ROW_150_2_Right_1128
*6449 PHY_EDGE_ROW_150_3_Left_1035
*6450 PHY_EDGE_ROW_150_3_Right_163
*6451 PHY_EDGE_ROW_151_1_Left_371
*6452 PHY_EDGE_ROW_151_1_Right_943
*6453 PHY_EDGE_ROW_151_2_Left_850
*6454 PHY_EDGE_ROW_151_2_Right_1129
*6455 PHY_EDGE_ROW_151_3_Left_1036
*6456 PHY_EDGE_ROW_151_3_Right_164
*6457 PHY_EDGE_ROW_152_1_Left_372
*6458 PHY_EDGE_ROW_152_1_Right_944
*6459 PHY_EDGE_ROW_152_2_Left_851
*6460 PHY_EDGE_ROW_152_2_Right_1130
*6461 PHY_EDGE_ROW_152_3_Left_1037
*6462 PHY_EDGE_ROW_152_3_Right_165
*6463 PHY_EDGE_ROW_153_1_Left_373
*6464 PHY_EDGE_ROW_153_1_Right_945
*6465 PHY_EDGE_ROW_153_2_Left_852
*6466 PHY_EDGE_ROW_153_2_Right_1131
*6467 PHY_EDGE_ROW_153_3_Left_1038
*6468 PHY_EDGE_ROW_153_3_Right_166
*6469 PHY_EDGE_ROW_154_1_Left_374
*6470 PHY_EDGE_ROW_154_1_Right_946
*6471 PHY_EDGE_ROW_154_2_Left_853
*6472 PHY_EDGE_ROW_154_2_Right_1132
*6473 PHY_EDGE_ROW_154_3_Left_1039
*6474 PHY_EDGE_ROW_154_3_Right_167
*6475 PHY_EDGE_ROW_155_1_Left_375
*6476 PHY_EDGE_ROW_155_1_Right_947
*6477 PHY_EDGE_ROW_155_2_Left_854
*6478 PHY_EDGE_ROW_155_2_Right_1133
*6479 PHY_EDGE_ROW_155_3_Left_1040
*6480 PHY_EDGE_ROW_155_3_Right_168
*6481 PHY_EDGE_ROW_156_1_Left_376
*6482 PHY_EDGE_ROW_156_1_Right_948
*6483 PHY_EDGE_ROW_156_2_Left_855
*6484 PHY_EDGE_ROW_156_2_Right_1134
*6485 PHY_EDGE_ROW_156_3_Left_1041
*6486 PHY_EDGE_ROW_156_3_Right_169
*6487 PHY_EDGE_ROW_157_1_Left_377
*6488 PHY_EDGE_ROW_157_1_Right_949
*6489 PHY_EDGE_ROW_157_2_Left_856
*6490 PHY_EDGE_ROW_157_2_Right_1135
*6491 PHY_EDGE_ROW_157_3_Left_1042
*6492 PHY_EDGE_ROW_157_3_Right_170
*6493 PHY_EDGE_ROW_158_1_Left_378
*6494 PHY_EDGE_ROW_158_1_Right_950
*6495 PHY_EDGE_ROW_158_2_Left_857
*6496 PHY_EDGE_ROW_158_2_Right_1136
*6497 PHY_EDGE_ROW_158_3_Left_1043
*6498 PHY_EDGE_ROW_158_3_Right_171
*6499 PHY_EDGE_ROW_159_1_Left_379
*6500 PHY_EDGE_ROW_159_1_Right_951
*6501 PHY_EDGE_ROW_159_2_Left_858
*6502 PHY_EDGE_ROW_159_2_Right_1137
*6503 PHY_EDGE_ROW_159_3_Left_1044
*6504 PHY_EDGE_ROW_159_3_Right_172
*6505 PHY_EDGE_ROW_15_1_Left_235
*6506 PHY_EDGE_ROW_15_1_Right_536
*6507 PHY_EDGE_ROW_15_2_Left_444
*6508 PHY_EDGE_ROW_15_2_Right_723
*6509 PHY_EDGE_ROW_15_3_Left_630
*6510 PHY_EDGE_ROW_15_3_Right_37
*6511 PHY_EDGE_ROW_160_1_Left_380
*6512 PHY_EDGE_ROW_160_1_Right_952
*6513 PHY_EDGE_ROW_160_2_Left_859
*6514 PHY_EDGE_ROW_160_2_Right_1138
*6515 PHY_EDGE_ROW_160_3_Left_1045
*6516 PHY_EDGE_ROW_160_3_Right_173
*6517 PHY_EDGE_ROW_161_1_Left_381
*6518 PHY_EDGE_ROW_161_1_Right_953
*6519 PHY_EDGE_ROW_161_2_Left_860
*6520 PHY_EDGE_ROW_161_2_Right_1139
*6521 PHY_EDGE_ROW_161_3_Left_1046
*6522 PHY_EDGE_ROW_161_3_Right_174
*6523 PHY_EDGE_ROW_162_1_Left_382
*6524 PHY_EDGE_ROW_162_1_Right_954
*6525 PHY_EDGE_ROW_162_2_Left_861
*6526 PHY_EDGE_ROW_162_2_Right_1140
*6527 PHY_EDGE_ROW_162_3_Left_1047
*6528 PHY_EDGE_ROW_162_3_Right_175
*6529 PHY_EDGE_ROW_163_1_Left_383
*6530 PHY_EDGE_ROW_163_1_Right_955
*6531 PHY_EDGE_ROW_163_2_Left_862
*6532 PHY_EDGE_ROW_163_2_Right_1141
*6533 PHY_EDGE_ROW_163_3_Left_1048
*6534 PHY_EDGE_ROW_163_3_Right_176
*6535 PHY_EDGE_ROW_164_1_Left_384
*6536 PHY_EDGE_ROW_164_1_Right_956
*6537 PHY_EDGE_ROW_164_2_Left_863
*6538 PHY_EDGE_ROW_164_2_Right_1142
*6539 PHY_EDGE_ROW_164_3_Left_1049
*6540 PHY_EDGE_ROW_164_3_Right_177
*6541 PHY_EDGE_ROW_165_1_Left_385
*6542 PHY_EDGE_ROW_165_1_Right_957
*6543 PHY_EDGE_ROW_165_2_Left_864
*6544 PHY_EDGE_ROW_165_2_Right_1143
*6545 PHY_EDGE_ROW_165_3_Left_1050
*6546 PHY_EDGE_ROW_165_3_Right_178
*6547 PHY_EDGE_ROW_166_1_Left_386
*6548 PHY_EDGE_ROW_166_1_Right_958
*6549 PHY_EDGE_ROW_166_2_Left_865
*6550 PHY_EDGE_ROW_166_2_Right_1144
*6551 PHY_EDGE_ROW_166_3_Left_1051
*6552 PHY_EDGE_ROW_166_3_Right_179
*6553 PHY_EDGE_ROW_167_1_Left_387
*6554 PHY_EDGE_ROW_167_1_Right_959
*6555 PHY_EDGE_ROW_167_2_Left_866
*6556 PHY_EDGE_ROW_167_2_Right_1145
*6557 PHY_EDGE_ROW_167_3_Left_1052
*6558 PHY_EDGE_ROW_167_3_Right_180
*6559 PHY_EDGE_ROW_168_1_Left_388
*6560 PHY_EDGE_ROW_168_1_Right_960
*6561 PHY_EDGE_ROW_168_2_Left_867
*6562 PHY_EDGE_ROW_168_2_Right_1146
*6563 PHY_EDGE_ROW_168_3_Left_1053
*6564 PHY_EDGE_ROW_168_3_Right_181
*6565 PHY_EDGE_ROW_169_1_Left_389
*6566 PHY_EDGE_ROW_169_1_Right_961
*6567 PHY_EDGE_ROW_169_2_Left_868
*6568 PHY_EDGE_ROW_169_2_Right_1147
*6569 PHY_EDGE_ROW_169_3_Left_1054
*6570 PHY_EDGE_ROW_169_3_Right_182
*6571 PHY_EDGE_ROW_16_1_Left_236
*6572 PHY_EDGE_ROW_16_1_Right_537
*6573 PHY_EDGE_ROW_16_2_Left_445
*6574 PHY_EDGE_ROW_16_2_Right_724
*6575 PHY_EDGE_ROW_16_3_Left_631
*6576 PHY_EDGE_ROW_16_3_Right_38
*6577 PHY_EDGE_ROW_170_1_Left_390
*6578 PHY_EDGE_ROW_170_1_Right_962
*6579 PHY_EDGE_ROW_170_2_Left_869
*6580 PHY_EDGE_ROW_170_2_Right_1148
*6581 PHY_EDGE_ROW_170_3_Left_1055
*6582 PHY_EDGE_ROW_170_3_Right_183
*6583 PHY_EDGE_ROW_171_1_Left_391
*6584 PHY_EDGE_ROW_171_1_Right_963
*6585 PHY_EDGE_ROW_171_2_Left_870
*6586 PHY_EDGE_ROW_171_2_Right_1149
*6587 PHY_EDGE_ROW_171_3_Left_1056
*6588 PHY_EDGE_ROW_171_3_Right_184
*6589 PHY_EDGE_ROW_172_1_Left_392
*6590 PHY_EDGE_ROW_172_1_Right_964
*6591 PHY_EDGE_ROW_172_2_Left_871
*6592 PHY_EDGE_ROW_172_2_Right_1150
*6593 PHY_EDGE_ROW_172_3_Left_1057
*6594 PHY_EDGE_ROW_172_3_Right_185
*6595 PHY_EDGE_ROW_173_1_Left_393
*6596 PHY_EDGE_ROW_173_1_Right_965
*6597 PHY_EDGE_ROW_173_2_Left_872
*6598 PHY_EDGE_ROW_173_2_Right_1151
*6599 PHY_EDGE_ROW_173_3_Left_1058
*6600 PHY_EDGE_ROW_173_3_Right_186
*6601 PHY_EDGE_ROW_174_1_Left_394
*6602 PHY_EDGE_ROW_174_1_Right_966
*6603 PHY_EDGE_ROW_174_2_Left_873
*6604 PHY_EDGE_ROW_174_2_Right_1152
*6605 PHY_EDGE_ROW_174_3_Left_1059
*6606 PHY_EDGE_ROW_174_3_Right_187
*6607 PHY_EDGE_ROW_175_1_Left_395
*6608 PHY_EDGE_ROW_175_1_Right_967
*6609 PHY_EDGE_ROW_175_2_Left_874
*6610 PHY_EDGE_ROW_175_2_Right_1153
*6611 PHY_EDGE_ROW_175_3_Left_1060
*6612 PHY_EDGE_ROW_175_3_Right_188
*6613 PHY_EDGE_ROW_176_1_Left_396
*6614 PHY_EDGE_ROW_176_1_Right_968
*6615 PHY_EDGE_ROW_176_2_Left_875
*6616 PHY_EDGE_ROW_176_2_Right_1154
*6617 PHY_EDGE_ROW_176_3_Left_1061
*6618 PHY_EDGE_ROW_176_3_Right_189
*6619 PHY_EDGE_ROW_177_1_Left_397
*6620 PHY_EDGE_ROW_177_1_Right_969
*6621 PHY_EDGE_ROW_177_2_Left_876
*6622 PHY_EDGE_ROW_177_2_Right_1155
*6623 PHY_EDGE_ROW_177_3_Left_1062
*6624 PHY_EDGE_ROW_177_3_Right_190
*6625 PHY_EDGE_ROW_178_1_Left_398
*6626 PHY_EDGE_ROW_178_1_Right_970
*6627 PHY_EDGE_ROW_178_2_Left_877
*6628 PHY_EDGE_ROW_178_2_Right_1156
*6629 PHY_EDGE_ROW_178_3_Left_1063
*6630 PHY_EDGE_ROW_178_3_Right_191
*6631 PHY_EDGE_ROW_179_1_Left_399
*6632 PHY_EDGE_ROW_179_1_Right_971
*6633 PHY_EDGE_ROW_179_2_Left_878
*6634 PHY_EDGE_ROW_179_2_Right_1157
*6635 PHY_EDGE_ROW_179_3_Left_1064
*6636 PHY_EDGE_ROW_179_3_Right_192
*6637 PHY_EDGE_ROW_17_1_Left_237
*6638 PHY_EDGE_ROW_17_1_Right_538
*6639 PHY_EDGE_ROW_17_2_Left_446
*6640 PHY_EDGE_ROW_17_2_Right_725
*6641 PHY_EDGE_ROW_17_3_Left_632
*6642 PHY_EDGE_ROW_17_3_Right_39
*6643 PHY_EDGE_ROW_180_1_Left_400
*6644 PHY_EDGE_ROW_180_1_Right_972
*6645 PHY_EDGE_ROW_180_2_Left_879
*6646 PHY_EDGE_ROW_180_2_Right_1158
*6647 PHY_EDGE_ROW_180_3_Left_1065
*6648 PHY_EDGE_ROW_180_3_Right_193
*6649 PHY_EDGE_ROW_181_1_Left_401
*6650 PHY_EDGE_ROW_181_1_Right_973
*6651 PHY_EDGE_ROW_181_2_Left_880
*6652 PHY_EDGE_ROW_181_2_Right_1159
*6653 PHY_EDGE_ROW_181_3_Left_1066
*6654 PHY_EDGE_ROW_181_3_Right_194
*6655 PHY_EDGE_ROW_182_1_Left_402
*6656 PHY_EDGE_ROW_182_1_Right_974
*6657 PHY_EDGE_ROW_182_2_Left_881
*6658 PHY_EDGE_ROW_182_2_Right_1160
*6659 PHY_EDGE_ROW_182_3_Left_1067
*6660 PHY_EDGE_ROW_182_3_Right_195
*6661 PHY_EDGE_ROW_183_1_Left_403
*6662 PHY_EDGE_ROW_183_1_Right_975
*6663 PHY_EDGE_ROW_183_2_Left_882
*6664 PHY_EDGE_ROW_183_2_Right_1161
*6665 PHY_EDGE_ROW_183_3_Left_1068
*6666 PHY_EDGE_ROW_183_3_Right_196
*6667 PHY_EDGE_ROW_184_1_Left_404
*6668 PHY_EDGE_ROW_184_1_Right_976
*6669 PHY_EDGE_ROW_184_2_Left_883
*6670 PHY_EDGE_ROW_184_2_Right_1162
*6671 PHY_EDGE_ROW_184_3_Left_1069
*6672 PHY_EDGE_ROW_184_3_Right_197
*6673 PHY_EDGE_ROW_185_1_Left_405
*6674 PHY_EDGE_ROW_185_1_Right_977
*6675 PHY_EDGE_ROW_185_2_Left_884
*6676 PHY_EDGE_ROW_185_2_Right_1163
*6677 PHY_EDGE_ROW_185_3_Left_1070
*6678 PHY_EDGE_ROW_185_3_Right_198
*6679 PHY_EDGE_ROW_186_1_Left_406
*6680 PHY_EDGE_ROW_186_1_Right_978
*6681 PHY_EDGE_ROW_186_2_Left_885
*6682 PHY_EDGE_ROW_186_2_Right_1164
*6683 PHY_EDGE_ROW_186_3_Left_1071
*6684 PHY_EDGE_ROW_186_3_Right_199
*6685 PHY_EDGE_ROW_187_1_Left_407
*6686 PHY_EDGE_ROW_187_1_Right_979
*6687 PHY_EDGE_ROW_187_2_Left_886
*6688 PHY_EDGE_ROW_187_2_Right_1165
*6689 PHY_EDGE_ROW_187_3_Left_1072
*6690 PHY_EDGE_ROW_187_3_Right_200
*6691 PHY_EDGE_ROW_188_1_Left_408
*6692 PHY_EDGE_ROW_188_1_Right_980
*6693 PHY_EDGE_ROW_188_2_Left_887
*6694 PHY_EDGE_ROW_188_2_Right_1166
*6695 PHY_EDGE_ROW_188_3_Left_1073
*6696 PHY_EDGE_ROW_188_3_Right_201
*6697 PHY_EDGE_ROW_189_1_Left_409
*6698 PHY_EDGE_ROW_189_1_Right_981
*6699 PHY_EDGE_ROW_189_2_Left_888
*6700 PHY_EDGE_ROW_189_2_Right_1167
*6701 PHY_EDGE_ROW_189_3_Left_1074
*6702 PHY_EDGE_ROW_189_3_Right_202
*6703 PHY_EDGE_ROW_18_1_Left_238
*6704 PHY_EDGE_ROW_18_1_Right_539
*6705 PHY_EDGE_ROW_18_2_Left_447
*6706 PHY_EDGE_ROW_18_2_Right_726
*6707 PHY_EDGE_ROW_18_3_Left_633
*6708 PHY_EDGE_ROW_18_3_Right_40
*6709 PHY_EDGE_ROW_190_1_Left_410
*6710 PHY_EDGE_ROW_190_1_Right_982
*6711 PHY_EDGE_ROW_190_2_Left_889
*6712 PHY_EDGE_ROW_190_2_Right_1168
*6713 PHY_EDGE_ROW_190_3_Left_1075
*6714 PHY_EDGE_ROW_190_3_Right_203
*6715 PHY_EDGE_ROW_191_1_Left_411
*6716 PHY_EDGE_ROW_191_1_Right_983
*6717 PHY_EDGE_ROW_191_2_Left_890
*6718 PHY_EDGE_ROW_191_2_Right_1169
*6719 PHY_EDGE_ROW_191_3_Left_1076
*6720 PHY_EDGE_ROW_191_3_Right_204
*6721 PHY_EDGE_ROW_192_1_Left_412
*6722 PHY_EDGE_ROW_192_1_Right_984
*6723 PHY_EDGE_ROW_192_2_Left_891
*6724 PHY_EDGE_ROW_192_2_Right_1170
*6725 PHY_EDGE_ROW_192_3_Left_1077
*6726 PHY_EDGE_ROW_192_3_Right_205
*6727 PHY_EDGE_ROW_193_1_Left_413
*6728 PHY_EDGE_ROW_193_1_Right_985
*6729 PHY_EDGE_ROW_193_2_Left_892
*6730 PHY_EDGE_ROW_193_2_Right_1171
*6731 PHY_EDGE_ROW_193_3_Left_1078
*6732 PHY_EDGE_ROW_193_3_Right_206
*6733 PHY_EDGE_ROW_194_1_Left_414
*6734 PHY_EDGE_ROW_194_1_Right_986
*6735 PHY_EDGE_ROW_194_2_Left_893
*6736 PHY_EDGE_ROW_194_2_Right_1172
*6737 PHY_EDGE_ROW_194_3_Left_1079
*6738 PHY_EDGE_ROW_194_3_Right_207
*6739 PHY_EDGE_ROW_195_1_Left_415
*6740 PHY_EDGE_ROW_195_1_Right_987
*6741 PHY_EDGE_ROW_195_2_Left_894
*6742 PHY_EDGE_ROW_195_2_Right_1173
*6743 PHY_EDGE_ROW_195_3_Left_1080
*6744 PHY_EDGE_ROW_195_3_Right_208
*6745 PHY_EDGE_ROW_196_1_Left_416
*6746 PHY_EDGE_ROW_196_1_Right_988
*6747 PHY_EDGE_ROW_196_2_Left_895
*6748 PHY_EDGE_ROW_196_2_Right_1174
*6749 PHY_EDGE_ROW_196_3_Left_1081
*6750 PHY_EDGE_ROW_196_3_Right_209
*6751 PHY_EDGE_ROW_197_1_Left_417
*6752 PHY_EDGE_ROW_197_1_Right_989
*6753 PHY_EDGE_ROW_197_2_Left_896
*6754 PHY_EDGE_ROW_197_2_Right_1175
*6755 PHY_EDGE_ROW_197_3_Left_1082
*6756 PHY_EDGE_ROW_197_3_Right_210
*6757 PHY_EDGE_ROW_198_1_Left_418
*6758 PHY_EDGE_ROW_198_1_Right_990
*6759 PHY_EDGE_ROW_198_2_Left_897
*6760 PHY_EDGE_ROW_198_2_Right_1176
*6761 PHY_EDGE_ROW_198_3_Left_1083
*6762 PHY_EDGE_ROW_198_3_Right_211
*6763 PHY_EDGE_ROW_199_1_Left_419
*6764 PHY_EDGE_ROW_199_1_Right_991
*6765 PHY_EDGE_ROW_199_2_Left_898
*6766 PHY_EDGE_ROW_199_2_Right_1177
*6767 PHY_EDGE_ROW_199_3_Left_1084
*6768 PHY_EDGE_ROW_199_3_Right_212
*6769 PHY_EDGE_ROW_19_1_Left_239
*6770 PHY_EDGE_ROW_19_1_Right_540
*6771 PHY_EDGE_ROW_19_2_Left_448
*6772 PHY_EDGE_ROW_19_2_Right_727
*6773 PHY_EDGE_ROW_19_3_Left_634
*6774 PHY_EDGE_ROW_19_3_Right_41
*6775 PHY_EDGE_ROW_1_Left_222
*6776 PHY_EDGE_ROW_1_Right_1
*6777 PHY_EDGE_ROW_200_1_Left_420
*6778 PHY_EDGE_ROW_200_1_Right_992
*6779 PHY_EDGE_ROW_200_2_Left_899
*6780 PHY_EDGE_ROW_200_2_Right_1178
*6781 PHY_EDGE_ROW_200_3_Left_1085
*6782 PHY_EDGE_ROW_200_3_Right_213
*6783 PHY_EDGE_ROW_201_1_Left_421
*6784 PHY_EDGE_ROW_201_1_Right_993
*6785 PHY_EDGE_ROW_201_2_Left_900
*6786 PHY_EDGE_ROW_201_2_Right_1179
*6787 PHY_EDGE_ROW_201_3_Left_1086
*6788 PHY_EDGE_ROW_201_3_Right_214
*6789 PHY_EDGE_ROW_202_1_Left_422
*6790 PHY_EDGE_ROW_202_1_Right_994
*6791 PHY_EDGE_ROW_202_2_Left_901
*6792 PHY_EDGE_ROW_202_2_Right_1180
*6793 PHY_EDGE_ROW_202_3_Left_1087
*6794 PHY_EDGE_ROW_202_3_Right_215
*6795 PHY_EDGE_ROW_203_1_Left_423
*6796 PHY_EDGE_ROW_203_1_Right_995
*6797 PHY_EDGE_ROW_203_2_Left_902
*6798 PHY_EDGE_ROW_203_2_Right_1181
*6799 PHY_EDGE_ROW_203_3_Left_1088
*6800 PHY_EDGE_ROW_203_3_Right_216
*6801 PHY_EDGE_ROW_204_1_Left_424
*6802 PHY_EDGE_ROW_204_1_Right_996
*6803 PHY_EDGE_ROW_204_2_Left_903
*6804 PHY_EDGE_ROW_204_2_Right_1182
*6805 PHY_EDGE_ROW_204_3_Left_1089
*6806 PHY_EDGE_ROW_204_3_Right_217
*6807 PHY_EDGE_ROW_205_1_Left_425
*6808 PHY_EDGE_ROW_205_1_Right_997
*6809 PHY_EDGE_ROW_205_2_Left_904
*6810 PHY_EDGE_ROW_205_2_Right_1183
*6811 PHY_EDGE_ROW_205_3_Left_1090
*6812 PHY_EDGE_ROW_205_3_Right_218
*6813 PHY_EDGE_ROW_206_1_Left_426
*6814 PHY_EDGE_ROW_206_1_Right_998
*6815 PHY_EDGE_ROW_206_2_Left_905
*6816 PHY_EDGE_ROW_206_2_Right_1184
*6817 PHY_EDGE_ROW_206_3_Left_1091
*6818 PHY_EDGE_ROW_206_3_Right_219
*6819 PHY_EDGE_ROW_207_1_Left_427
*6820 PHY_EDGE_ROW_207_1_Right_999
*6821 PHY_EDGE_ROW_207_2_Left_906
*6822 PHY_EDGE_ROW_207_2_Right_1185
*6823 PHY_EDGE_ROW_207_3_Left_1092
*6824 PHY_EDGE_ROW_207_3_Right_220
*6825 PHY_EDGE_ROW_208_Left_428
*6826 PHY_EDGE_ROW_208_Right_22
*6827 PHY_EDGE_ROW_209_Left_429
*6828 PHY_EDGE_ROW_209_Right_23
*6829 PHY_EDGE_ROW_20_1_Left_240
*6830 PHY_EDGE_ROW_20_1_Right_541
*6831 PHY_EDGE_ROW_20_2_Left_449
*6832 PHY_EDGE_ROW_20_2_Right_728
*6833 PHY_EDGE_ROW_20_3_Left_635
*6834 PHY_EDGE_ROW_20_3_Right_42
*6835 PHY_EDGE_ROW_210_Left_430
*6836 PHY_EDGE_ROW_210_Right_24
*6837 PHY_EDGE_ROW_211_Left_431
*6838 PHY_EDGE_ROW_211_Right_25
*6839 PHY_EDGE_ROW_212_Left_432
*6840 PHY_EDGE_ROW_212_Right_26
*6841 PHY_EDGE_ROW_213_Left_433
*6842 PHY_EDGE_ROW_213_Right_27
*6843 PHY_EDGE_ROW_214_Left_434
*6844 PHY_EDGE_ROW_214_Right_28
*6845 PHY_EDGE_ROW_215_Left_435
*6846 PHY_EDGE_ROW_215_Right_29
*6847 PHY_EDGE_ROW_216_Left_436
*6848 PHY_EDGE_ROW_216_Right_30
*6849 PHY_EDGE_ROW_217_Left_437
*6850 PHY_EDGE_ROW_217_Right_31
*6851 PHY_EDGE_ROW_218_Left_438
*6852 PHY_EDGE_ROW_218_Right_32
*6853 PHY_EDGE_ROW_219_Left_439
*6854 PHY_EDGE_ROW_219_Right_33
*6855 PHY_EDGE_ROW_21_1_Left_241
*6856 PHY_EDGE_ROW_21_1_Right_542
*6857 PHY_EDGE_ROW_21_2_Left_450
*6858 PHY_EDGE_ROW_21_2_Right_729
*6859 PHY_EDGE_ROW_21_3_Left_636
*6860 PHY_EDGE_ROW_21_3_Right_43
*6861 PHY_EDGE_ROW_220_Left_440
*6862 PHY_EDGE_ROW_220_Right_34
*6863 PHY_EDGE_ROW_22_1_Left_242
*6864 PHY_EDGE_ROW_22_1_Right_543
*6865 PHY_EDGE_ROW_22_2_Left_451
*6866 PHY_EDGE_ROW_22_2_Right_730
*6867 PHY_EDGE_ROW_22_3_Left_637
*6868 PHY_EDGE_ROW_22_3_Right_44
*6869 PHY_EDGE_ROW_23_1_Left_243
*6870 PHY_EDGE_ROW_23_1_Right_544
*6871 PHY_EDGE_ROW_23_2_Left_452
*6872 PHY_EDGE_ROW_23_2_Right_731
*6873 PHY_EDGE_ROW_23_3_Left_638
*6874 PHY_EDGE_ROW_23_3_Right_45
*6875 PHY_EDGE_ROW_24_1_Left_244
*6876 PHY_EDGE_ROW_24_1_Right_545
*6877 PHY_EDGE_ROW_24_2_Left_453
*6878 PHY_EDGE_ROW_24_2_Right_732
*6879 PHY_EDGE_ROW_24_3_Left_639
*6880 PHY_EDGE_ROW_24_3_Right_46
*6881 PHY_EDGE_ROW_25_1_Left_245
*6882 PHY_EDGE_ROW_25_1_Right_546
*6883 PHY_EDGE_ROW_25_2_Left_454
*6884 PHY_EDGE_ROW_25_2_Right_733
*6885 PHY_EDGE_ROW_25_3_Left_640
*6886 PHY_EDGE_ROW_25_3_Right_47
*6887 PHY_EDGE_ROW_26_1_Left_246
*6888 PHY_EDGE_ROW_26_1_Right_547
*6889 PHY_EDGE_ROW_26_2_Left_455
*6890 PHY_EDGE_ROW_26_2_Right_734
*6891 PHY_EDGE_ROW_26_3_Left_641
*6892 PHY_EDGE_ROW_26_3_Right_48
*6893 PHY_EDGE_ROW_27_1_Left_247
*6894 PHY_EDGE_ROW_27_1_Right_548
*6895 PHY_EDGE_ROW_27_2_Left_456
*6896 PHY_EDGE_ROW_27_2_Right_735
*6897 PHY_EDGE_ROW_27_3_Left_642
*6898 PHY_EDGE_ROW_27_3_Right_49
*6899 PHY_EDGE_ROW_28_1_Left_248
*6900 PHY_EDGE_ROW_28_1_Right_549
*6901 PHY_EDGE_ROW_28_2_Left_457
*6902 PHY_EDGE_ROW_28_2_Right_736
*6903 PHY_EDGE_ROW_28_3_Left_643
*6904 PHY_EDGE_ROW_28_3_Right_50
*6905 PHY_EDGE_ROW_29_1_Left_249
*6906 PHY_EDGE_ROW_29_1_Right_550
*6907 PHY_EDGE_ROW_29_2_Left_458
*6908 PHY_EDGE_ROW_29_2_Right_737
*6909 PHY_EDGE_ROW_29_3_Left_644
*6910 PHY_EDGE_ROW_29_3_Right_51
*6911 PHY_EDGE_ROW_2_Left_223
*6912 PHY_EDGE_ROW_2_Right_2
*6913 PHY_EDGE_ROW_30_1_Left_250
*6914 PHY_EDGE_ROW_30_1_Right_551
*6915 PHY_EDGE_ROW_30_2_Left_459
*6916 PHY_EDGE_ROW_30_2_Right_738
*6917 PHY_EDGE_ROW_30_3_Left_645
*6918 PHY_EDGE_ROW_30_3_Right_52
*6919 PHY_EDGE_ROW_31_1_Left_251
*6920 PHY_EDGE_ROW_31_1_Right_552
*6921 PHY_EDGE_ROW_31_2_Left_460
*6922 PHY_EDGE_ROW_31_2_Right_739
*6923 PHY_EDGE_ROW_31_3_Left_646
*6924 PHY_EDGE_ROW_31_3_Right_53
*6925 PHY_EDGE_ROW_32_1_Left_252
*6926 PHY_EDGE_ROW_32_1_Right_553
*6927 PHY_EDGE_ROW_32_2_Left_461
*6928 PHY_EDGE_ROW_32_2_Right_740
*6929 PHY_EDGE_ROW_32_3_Left_647
*6930 PHY_EDGE_ROW_32_3_Right_54
*6931 PHY_EDGE_ROW_33_1_Left_253
*6932 PHY_EDGE_ROW_33_1_Right_554
*6933 PHY_EDGE_ROW_33_2_Left_462
*6934 PHY_EDGE_ROW_33_2_Right_741
*6935 PHY_EDGE_ROW_33_3_Left_648
*6936 PHY_EDGE_ROW_33_3_Right_55
*6937 PHY_EDGE_ROW_34_1_Left_254
*6938 PHY_EDGE_ROW_34_1_Right_555
*6939 PHY_EDGE_ROW_34_2_Left_463
*6940 PHY_EDGE_ROW_34_2_Right_742
*6941 PHY_EDGE_ROW_34_3_Left_649
*6942 PHY_EDGE_ROW_34_3_Right_56
*6943 PHY_EDGE_ROW_35_1_Left_255
*6944 PHY_EDGE_ROW_35_1_Right_556
*6945 PHY_EDGE_ROW_35_2_Left_464
*6946 PHY_EDGE_ROW_35_2_Right_743
*6947 PHY_EDGE_ROW_35_3_Left_650
*6948 PHY_EDGE_ROW_35_3_Right_57
*6949 PHY_EDGE_ROW_36_1_Left_256
*6950 PHY_EDGE_ROW_36_1_Right_557
*6951 PHY_EDGE_ROW_36_2_Left_465
*6952 PHY_EDGE_ROW_36_2_Right_744
*6953 PHY_EDGE_ROW_36_3_Left_651
*6954 PHY_EDGE_ROW_36_3_Right_58
*6955 PHY_EDGE_ROW_37_1_Left_257
*6956 PHY_EDGE_ROW_37_1_Right_558
*6957 PHY_EDGE_ROW_37_2_Left_466
*6958 PHY_EDGE_ROW_37_2_Right_745
*6959 PHY_EDGE_ROW_37_3_Left_652
*6960 PHY_EDGE_ROW_37_3_Right_59
*6961 PHY_EDGE_ROW_38_1_Left_258
*6962 PHY_EDGE_ROW_38_1_Right_559
*6963 PHY_EDGE_ROW_38_2_Left_467
*6964 PHY_EDGE_ROW_38_2_Right_746
*6965 PHY_EDGE_ROW_38_3_Left_653
*6966 PHY_EDGE_ROW_38_3_Right_60
*6967 PHY_EDGE_ROW_39_1_Left_259
*6968 PHY_EDGE_ROW_39_1_Right_560
*6969 PHY_EDGE_ROW_39_2_Left_468
*6970 PHY_EDGE_ROW_39_2_Right_747
*6971 PHY_EDGE_ROW_39_3_Left_654
*6972 PHY_EDGE_ROW_39_3_Right_61
*6973 PHY_EDGE_ROW_3_Left_224
*6974 PHY_EDGE_ROW_3_Right_3
*6975 PHY_EDGE_ROW_40_1_Left_260
*6976 PHY_EDGE_ROW_40_1_Right_561
*6977 PHY_EDGE_ROW_40_2_Left_469
*6978 PHY_EDGE_ROW_40_2_Right_748
*6979 PHY_EDGE_ROW_40_3_Left_655
*6980 PHY_EDGE_ROW_40_3_Right_62
*6981 PHY_EDGE_ROW_41_1_Left_261
*6982 PHY_EDGE_ROW_41_1_Right_562
*6983 PHY_EDGE_ROW_41_2_Left_470
*6984 PHY_EDGE_ROW_41_2_Right_749
*6985 PHY_EDGE_ROW_41_3_Left_656
*6986 PHY_EDGE_ROW_41_3_Right_63
*6987 PHY_EDGE_ROW_42_1_Left_262
*6988 PHY_EDGE_ROW_42_1_Right_563
*6989 PHY_EDGE_ROW_42_2_Left_471
*6990 PHY_EDGE_ROW_42_2_Right_750
*6991 PHY_EDGE_ROW_42_3_Left_657
*6992 PHY_EDGE_ROW_42_3_Right_64
*6993 PHY_EDGE_ROW_43_1_Left_263
*6994 PHY_EDGE_ROW_43_1_Right_564
*6995 PHY_EDGE_ROW_43_2_Left_472
*6996 PHY_EDGE_ROW_43_2_Right_751
*6997 PHY_EDGE_ROW_43_3_Left_658
*6998 PHY_EDGE_ROW_43_3_Right_65
*6999 PHY_EDGE_ROW_44_1_Left_264
*7000 PHY_EDGE_ROW_44_1_Right_565
*7001 PHY_EDGE_ROW_44_2_Left_473
*7002 PHY_EDGE_ROW_44_2_Right_752
*7003 PHY_EDGE_ROW_44_3_Left_659
*7004 PHY_EDGE_ROW_44_3_Right_66
*7005 PHY_EDGE_ROW_45_1_Left_265
*7006 PHY_EDGE_ROW_45_1_Right_566
*7007 PHY_EDGE_ROW_45_2_Left_474
*7008 PHY_EDGE_ROW_45_2_Right_753
*7009 PHY_EDGE_ROW_45_3_Left_660
*7010 PHY_EDGE_ROW_45_3_Right_67
*7011 PHY_EDGE_ROW_46_1_Left_266
*7012 PHY_EDGE_ROW_46_1_Right_567
*7013 PHY_EDGE_ROW_46_2_Left_475
*7014 PHY_EDGE_ROW_46_2_Right_754
*7015 PHY_EDGE_ROW_46_3_Left_661
*7016 PHY_EDGE_ROW_46_3_Right_68
*7017 PHY_EDGE_ROW_47_1_Left_267
*7018 PHY_EDGE_ROW_47_1_Right_568
*7019 PHY_EDGE_ROW_47_2_Left_476
*7020 PHY_EDGE_ROW_47_2_Right_755
*7021 PHY_EDGE_ROW_47_3_Left_662
*7022 PHY_EDGE_ROW_47_3_Right_69
*7023 PHY_EDGE_ROW_48_1_Left_268
*7024 PHY_EDGE_ROW_48_1_Right_569
*7025 PHY_EDGE_ROW_48_2_Left_477
*7026 PHY_EDGE_ROW_48_2_Right_756
*7027 PHY_EDGE_ROW_48_3_Left_663
*7028 PHY_EDGE_ROW_48_3_Right_70
*7029 PHY_EDGE_ROW_49_1_Left_269
*7030 PHY_EDGE_ROW_49_1_Right_570
*7031 PHY_EDGE_ROW_49_2_Left_478
*7032 PHY_EDGE_ROW_49_2_Right_757
*7033 PHY_EDGE_ROW_49_3_Left_664
*7034 PHY_EDGE_ROW_49_3_Right_71
*7035 PHY_EDGE_ROW_4_Left_225
*7036 PHY_EDGE_ROW_4_Right_4
*7037 PHY_EDGE_ROW_50_1_Left_270
*7038 PHY_EDGE_ROW_50_1_Right_571
*7039 PHY_EDGE_ROW_50_2_Left_479
*7040 PHY_EDGE_ROW_50_2_Right_758
*7041 PHY_EDGE_ROW_50_3_Left_665
*7042 PHY_EDGE_ROW_50_3_Right_72
*7043 PHY_EDGE_ROW_51_1_Left_271
*7044 PHY_EDGE_ROW_51_1_Right_572
*7045 PHY_EDGE_ROW_51_2_Left_480
*7046 PHY_EDGE_ROW_51_2_Right_759
*7047 PHY_EDGE_ROW_51_3_Left_666
*7048 PHY_EDGE_ROW_51_3_Right_73
*7049 PHY_EDGE_ROW_52_1_Left_272
*7050 PHY_EDGE_ROW_52_1_Right_573
*7051 PHY_EDGE_ROW_52_2_Left_481
*7052 PHY_EDGE_ROW_52_2_Right_760
*7053 PHY_EDGE_ROW_52_3_Left_667
*7054 PHY_EDGE_ROW_52_3_Right_74
*7055 PHY_EDGE_ROW_53_1_Left_273
*7056 PHY_EDGE_ROW_53_1_Right_574
*7057 PHY_EDGE_ROW_53_2_Left_482
*7058 PHY_EDGE_ROW_53_2_Right_761
*7059 PHY_EDGE_ROW_53_3_Left_668
*7060 PHY_EDGE_ROW_53_3_Right_75
*7061 PHY_EDGE_ROW_54_1_Left_274
*7062 PHY_EDGE_ROW_54_1_Right_575
*7063 PHY_EDGE_ROW_54_2_Left_483
*7064 PHY_EDGE_ROW_54_2_Right_762
*7065 PHY_EDGE_ROW_54_3_Left_669
*7066 PHY_EDGE_ROW_54_3_Right_76
*7067 PHY_EDGE_ROW_55_1_Left_275
*7068 PHY_EDGE_ROW_55_1_Right_576
*7069 PHY_EDGE_ROW_55_2_Left_484
*7070 PHY_EDGE_ROW_55_2_Right_763
*7071 PHY_EDGE_ROW_55_3_Left_670
*7072 PHY_EDGE_ROW_55_3_Right_77
*7073 PHY_EDGE_ROW_56_1_Left_276
*7074 PHY_EDGE_ROW_56_1_Right_577
*7075 PHY_EDGE_ROW_56_2_Left_485
*7076 PHY_EDGE_ROW_56_2_Right_764
*7077 PHY_EDGE_ROW_56_3_Left_671
*7078 PHY_EDGE_ROW_56_3_Right_78
*7079 PHY_EDGE_ROW_57_1_Left_277
*7080 PHY_EDGE_ROW_57_1_Right_578
*7081 PHY_EDGE_ROW_57_2_Left_486
*7082 PHY_EDGE_ROW_57_2_Right_765
*7083 PHY_EDGE_ROW_57_3_Left_672
*7084 PHY_EDGE_ROW_57_3_Right_79
*7085 PHY_EDGE_ROW_58_1_Left_278
*7086 PHY_EDGE_ROW_58_1_Right_579
*7087 PHY_EDGE_ROW_58_2_Left_487
*7088 PHY_EDGE_ROW_58_2_Right_766
*7089 PHY_EDGE_ROW_58_3_Left_673
*7090 PHY_EDGE_ROW_58_3_Right_80
*7091 PHY_EDGE_ROW_59_1_Left_279
*7092 PHY_EDGE_ROW_59_1_Right_580
*7093 PHY_EDGE_ROW_59_2_Left_488
*7094 PHY_EDGE_ROW_59_2_Right_767
*7095 PHY_EDGE_ROW_59_3_Left_674
*7096 PHY_EDGE_ROW_59_3_Right_81
*7097 PHY_EDGE_ROW_5_Left_226
*7098 PHY_EDGE_ROW_5_Right_5
*7099 PHY_EDGE_ROW_60_1_Left_280
*7100 PHY_EDGE_ROW_60_1_Right_581
*7101 PHY_EDGE_ROW_60_2_Left_489
*7102 PHY_EDGE_ROW_60_2_Right_768
*7103 PHY_EDGE_ROW_60_3_Left_675
*7104 PHY_EDGE_ROW_60_3_Right_82
*7105 PHY_EDGE_ROW_61_1_Left_281
*7106 PHY_EDGE_ROW_61_1_Right_582
*7107 PHY_EDGE_ROW_61_2_Left_490
*7108 PHY_EDGE_ROW_61_2_Right_769
*7109 PHY_EDGE_ROW_61_3_Left_676
*7110 PHY_EDGE_ROW_61_3_Right_83
*7111 PHY_EDGE_ROW_62_1_Left_282
*7112 PHY_EDGE_ROW_62_1_Right_583
*7113 PHY_EDGE_ROW_62_2_Left_491
*7114 PHY_EDGE_ROW_62_2_Right_770
*7115 PHY_EDGE_ROW_62_3_Left_677
*7116 PHY_EDGE_ROW_62_3_Right_84
*7117 PHY_EDGE_ROW_63_1_Left_283
*7118 PHY_EDGE_ROW_63_1_Right_584
*7119 PHY_EDGE_ROW_63_2_Left_492
*7120 PHY_EDGE_ROW_63_2_Right_771
*7121 PHY_EDGE_ROW_63_3_Left_678
*7122 PHY_EDGE_ROW_63_3_Right_85
*7123 PHY_EDGE_ROW_64_1_Left_284
*7124 PHY_EDGE_ROW_64_1_Right_585
*7125 PHY_EDGE_ROW_64_2_Left_493
*7126 PHY_EDGE_ROW_64_2_Right_772
*7127 PHY_EDGE_ROW_64_3_Left_679
*7128 PHY_EDGE_ROW_64_3_Right_86
*7129 PHY_EDGE_ROW_65_1_Left_285
*7130 PHY_EDGE_ROW_65_1_Right_586
*7131 PHY_EDGE_ROW_65_2_Left_494
*7132 PHY_EDGE_ROW_65_2_Right_773
*7133 PHY_EDGE_ROW_65_3_Left_680
*7134 PHY_EDGE_ROW_65_3_Right_87
*7135 PHY_EDGE_ROW_66_1_Left_286
*7136 PHY_EDGE_ROW_66_1_Right_587
*7137 PHY_EDGE_ROW_66_2_Left_495
*7138 PHY_EDGE_ROW_66_2_Right_774
*7139 PHY_EDGE_ROW_66_3_Left_681
*7140 PHY_EDGE_ROW_66_3_Right_88
*7141 PHY_EDGE_ROW_67_1_Left_287
*7142 PHY_EDGE_ROW_67_1_Right_588
*7143 PHY_EDGE_ROW_67_2_Left_496
*7144 PHY_EDGE_ROW_67_2_Right_775
*7145 PHY_EDGE_ROW_67_3_Left_682
*7146 PHY_EDGE_ROW_67_3_Right_89
*7147 PHY_EDGE_ROW_68_1_Left_288
*7148 PHY_EDGE_ROW_68_1_Right_589
*7149 PHY_EDGE_ROW_68_2_Left_497
*7150 PHY_EDGE_ROW_68_2_Right_776
*7151 PHY_EDGE_ROW_68_3_Left_683
*7152 PHY_EDGE_ROW_68_3_Right_90
*7153 PHY_EDGE_ROW_69_1_Left_289
*7154 PHY_EDGE_ROW_69_1_Right_590
*7155 PHY_EDGE_ROW_69_2_Left_498
*7156 PHY_EDGE_ROW_69_2_Right_777
*7157 PHY_EDGE_ROW_69_3_Left_684
*7158 PHY_EDGE_ROW_69_3_Right_91
*7159 PHY_EDGE_ROW_6_Left_227
*7160 PHY_EDGE_ROW_6_Right_6
*7161 PHY_EDGE_ROW_70_1_Left_290
*7162 PHY_EDGE_ROW_70_1_Right_591
*7163 PHY_EDGE_ROW_70_2_Left_499
*7164 PHY_EDGE_ROW_70_2_Right_778
*7165 PHY_EDGE_ROW_70_3_Left_685
*7166 PHY_EDGE_ROW_70_3_Right_92
*7167 PHY_EDGE_ROW_71_1_Left_291
*7168 PHY_EDGE_ROW_71_1_Right_592
*7169 PHY_EDGE_ROW_71_2_Left_500
*7170 PHY_EDGE_ROW_71_2_Right_779
*7171 PHY_EDGE_ROW_71_3_Left_686
*7172 PHY_EDGE_ROW_71_3_Right_93
*7173 PHY_EDGE_ROW_72_1_Left_292
*7174 PHY_EDGE_ROW_72_1_Right_593
*7175 PHY_EDGE_ROW_72_2_Left_501
*7176 PHY_EDGE_ROW_72_2_Right_780
*7177 PHY_EDGE_ROW_72_3_Left_687
*7178 PHY_EDGE_ROW_72_3_Right_94
*7179 PHY_EDGE_ROW_73_1_Left_293
*7180 PHY_EDGE_ROW_73_1_Right_594
*7181 PHY_EDGE_ROW_73_2_Left_502
*7182 PHY_EDGE_ROW_73_2_Right_781
*7183 PHY_EDGE_ROW_73_3_Left_688
*7184 PHY_EDGE_ROW_73_3_Right_95
*7185 PHY_EDGE_ROW_74_1_Left_294
*7186 PHY_EDGE_ROW_74_1_Right_595
*7187 PHY_EDGE_ROW_74_2_Left_503
*7188 PHY_EDGE_ROW_74_2_Right_782
*7189 PHY_EDGE_ROW_74_3_Left_689
*7190 PHY_EDGE_ROW_74_3_Right_96
*7191 PHY_EDGE_ROW_75_1_Left_295
*7192 PHY_EDGE_ROW_75_1_Right_596
*7193 PHY_EDGE_ROW_75_2_Left_504
*7194 PHY_EDGE_ROW_75_2_Right_783
*7195 PHY_EDGE_ROW_75_3_Left_690
*7196 PHY_EDGE_ROW_75_3_Right_97
*7197 PHY_EDGE_ROW_76_1_Left_296
*7198 PHY_EDGE_ROW_76_1_Right_597
*7199 PHY_EDGE_ROW_76_2_Left_505
*7200 PHY_EDGE_ROW_76_2_Right_784
*7201 PHY_EDGE_ROW_76_3_Left_691
*7202 PHY_EDGE_ROW_76_3_Right_98
*7203 PHY_EDGE_ROW_77_1_Left_297
*7204 PHY_EDGE_ROW_77_1_Right_598
*7205 PHY_EDGE_ROW_77_2_Left_506
*7206 PHY_EDGE_ROW_77_2_Right_785
*7207 PHY_EDGE_ROW_77_3_Left_692
*7208 PHY_EDGE_ROW_77_3_Right_99
*7209 PHY_EDGE_ROW_78_1_Left_298
*7210 PHY_EDGE_ROW_78_1_Right_599
*7211 PHY_EDGE_ROW_78_2_Left_507
*7212 PHY_EDGE_ROW_78_2_Right_786
*7213 PHY_EDGE_ROW_78_3_Left_693
*7214 PHY_EDGE_ROW_78_3_Right_100
*7215 PHY_EDGE_ROW_79_1_Left_299
*7216 PHY_EDGE_ROW_79_1_Right_600
*7217 PHY_EDGE_ROW_79_2_Left_508
*7218 PHY_EDGE_ROW_79_2_Right_787
*7219 PHY_EDGE_ROW_79_3_Left_694
*7220 PHY_EDGE_ROW_79_3_Right_101
*7221 PHY_EDGE_ROW_7_Left_228
*7222 PHY_EDGE_ROW_7_Right_7
*7223 PHY_EDGE_ROW_80_1_Left_300
*7224 PHY_EDGE_ROW_80_1_Right_601
*7225 PHY_EDGE_ROW_80_2_Left_509
*7226 PHY_EDGE_ROW_80_2_Right_788
*7227 PHY_EDGE_ROW_80_3_Left_695
*7228 PHY_EDGE_ROW_80_3_Right_102
*7229 PHY_EDGE_ROW_81_1_Left_301
*7230 PHY_EDGE_ROW_81_1_Right_602
*7231 PHY_EDGE_ROW_81_2_Left_510
*7232 PHY_EDGE_ROW_81_2_Right_789
*7233 PHY_EDGE_ROW_81_3_Left_696
*7234 PHY_EDGE_ROW_81_3_Right_103
*7235 PHY_EDGE_ROW_82_1_Left_302
*7236 PHY_EDGE_ROW_82_1_Right_603
*7237 PHY_EDGE_ROW_82_2_Left_511
*7238 PHY_EDGE_ROW_82_2_Right_790
*7239 PHY_EDGE_ROW_82_3_Left_697
*7240 PHY_EDGE_ROW_82_3_Right_104
*7241 PHY_EDGE_ROW_83_1_Left_303
*7242 PHY_EDGE_ROW_83_1_Right_604
*7243 PHY_EDGE_ROW_83_2_Left_512
*7244 PHY_EDGE_ROW_83_2_Right_791
*7245 PHY_EDGE_ROW_83_3_Left_698
*7246 PHY_EDGE_ROW_83_3_Right_105
*7247 PHY_EDGE_ROW_84_1_Left_304
*7248 PHY_EDGE_ROW_84_1_Right_605
*7249 PHY_EDGE_ROW_84_2_Left_513
*7250 PHY_EDGE_ROW_84_2_Right_792
*7251 PHY_EDGE_ROW_84_3_Left_699
*7252 PHY_EDGE_ROW_84_3_Right_106
*7253 PHY_EDGE_ROW_85_1_Left_305
*7254 PHY_EDGE_ROW_85_1_Right_606
*7255 PHY_EDGE_ROW_85_2_Left_514
*7256 PHY_EDGE_ROW_85_2_Right_793
*7257 PHY_EDGE_ROW_85_3_Left_700
*7258 PHY_EDGE_ROW_85_3_Right_107
*7259 PHY_EDGE_ROW_86_1_Left_306
*7260 PHY_EDGE_ROW_86_1_Right_607
*7261 PHY_EDGE_ROW_86_2_Left_515
*7262 PHY_EDGE_ROW_86_2_Right_794
*7263 PHY_EDGE_ROW_86_3_Left_701
*7264 PHY_EDGE_ROW_86_3_Right_108
*7265 PHY_EDGE_ROW_87_1_Left_307
*7266 PHY_EDGE_ROW_87_1_Right_608
*7267 PHY_EDGE_ROW_87_2_Left_516
*7268 PHY_EDGE_ROW_87_2_Right_795
*7269 PHY_EDGE_ROW_87_3_Left_702
*7270 PHY_EDGE_ROW_87_3_Right_109
*7271 PHY_EDGE_ROW_88_1_Left_308
*7272 PHY_EDGE_ROW_88_1_Right_609
*7273 PHY_EDGE_ROW_88_2_Left_517
*7274 PHY_EDGE_ROW_88_2_Right_796
*7275 PHY_EDGE_ROW_88_3_Left_703
*7276 PHY_EDGE_ROW_88_3_Right_110
*7277 PHY_EDGE_ROW_89_1_Left_309
*7278 PHY_EDGE_ROW_89_1_Right_610
*7279 PHY_EDGE_ROW_89_2_Left_518
*7280 PHY_EDGE_ROW_89_2_Right_797
*7281 PHY_EDGE_ROW_89_3_Left_704
*7282 PHY_EDGE_ROW_89_3_Right_111
*7283 PHY_EDGE_ROW_8_Left_229
*7284 PHY_EDGE_ROW_8_Right_8
*7285 PHY_EDGE_ROW_90_1_Left_310
*7286 PHY_EDGE_ROW_90_1_Right_611
*7287 PHY_EDGE_ROW_90_2_Left_519
*7288 PHY_EDGE_ROW_90_2_Right_798
*7289 PHY_EDGE_ROW_90_3_Left_705
*7290 PHY_EDGE_ROW_90_3_Right_112
*7291 PHY_EDGE_ROW_91_1_Left_311
*7292 PHY_EDGE_ROW_91_1_Right_612
*7293 PHY_EDGE_ROW_91_2_Left_520
*7294 PHY_EDGE_ROW_91_2_Right_799
*7295 PHY_EDGE_ROW_91_3_Left_706
*7296 PHY_EDGE_ROW_91_3_Right_113
*7297 PHY_EDGE_ROW_92_1_Left_312
*7298 PHY_EDGE_ROW_92_1_Right_613
*7299 PHY_EDGE_ROW_92_2_Left_521
*7300 PHY_EDGE_ROW_92_2_Right_800
*7301 PHY_EDGE_ROW_92_3_Left_707
*7302 PHY_EDGE_ROW_92_3_Right_114
*7303 PHY_EDGE_ROW_93_1_Left_313
*7304 PHY_EDGE_ROW_93_1_Right_614
*7305 PHY_EDGE_ROW_93_2_Left_522
*7306 PHY_EDGE_ROW_93_2_Right_801
*7307 PHY_EDGE_ROW_93_3_Left_708
*7308 PHY_EDGE_ROW_93_3_Right_115
*7309 PHY_EDGE_ROW_94_1_Left_314
*7310 PHY_EDGE_ROW_94_1_Right_615
*7311 PHY_EDGE_ROW_94_2_Left_523
*7312 PHY_EDGE_ROW_94_2_Right_802
*7313 PHY_EDGE_ROW_94_3_Left_709
*7314 PHY_EDGE_ROW_94_3_Right_116
*7315 PHY_EDGE_ROW_95_1_Left_315
*7316 PHY_EDGE_ROW_95_1_Right_616
*7317 PHY_EDGE_ROW_95_2_Left_524
*7318 PHY_EDGE_ROW_95_2_Right_803
*7319 PHY_EDGE_ROW_95_3_Left_710
*7320 PHY_EDGE_ROW_95_3_Right_117
*7321 PHY_EDGE_ROW_96_1_Left_316
*7322 PHY_EDGE_ROW_96_1_Right_617
*7323 PHY_EDGE_ROW_96_2_Left_525
*7324 PHY_EDGE_ROW_96_2_Right_804
*7325 PHY_EDGE_ROW_96_3_Left_711
*7326 PHY_EDGE_ROW_96_3_Right_118
*7327 PHY_EDGE_ROW_97_1_Left_317
*7328 PHY_EDGE_ROW_97_1_Right_618
*7329 PHY_EDGE_ROW_97_2_Left_526
*7330 PHY_EDGE_ROW_97_2_Right_805
*7331 PHY_EDGE_ROW_97_3_Left_712
*7332 PHY_EDGE_ROW_97_3_Right_119
*7333 PHY_EDGE_ROW_98_1_Left_318
*7334 PHY_EDGE_ROW_98_1_Right_619
*7335 PHY_EDGE_ROW_98_2_Left_527
*7336 PHY_EDGE_ROW_98_2_Right_806
*7337 PHY_EDGE_ROW_98_3_Left_713
*7338 PHY_EDGE_ROW_98_3_Right_120
*7339 PHY_EDGE_ROW_99_1_Left_319
*7340 PHY_EDGE_ROW_99_1_Right_620
*7341 PHY_EDGE_ROW_99_2_Left_528
*7342 PHY_EDGE_ROW_99_2_Right_807
*7343 PHY_EDGE_ROW_99_3_Left_714
*7344 PHY_EDGE_ROW_99_3_Right_121
*7345 PHY_EDGE_ROW_9_Left_230
*7346 PHY_EDGE_ROW_9_Right_9
*7347 TAP_TAPCELL_ROW_0_1186
*7348 TAP_TAPCELL_ROW_0_1187
*7349 TAP_TAPCELL_ROW_0_1188
*7350 TAP_TAPCELL_ROW_0_1189
*7351 TAP_TAPCELL_ROW_0_1190
*7352 TAP_TAPCELL_ROW_0_1191
*7353 TAP_TAPCELL_ROW_0_1192
*7354 TAP_TAPCELL_ROW_0_1193
*7355 TAP_TAPCELL_ROW_0_1194
*7356 TAP_TAPCELL_ROW_0_1195
*7357 TAP_TAPCELL_ROW_0_1196
*7358 TAP_TAPCELL_ROW_0_1197
*7359 TAP_TAPCELL_ROW_0_1198
*7360 TAP_TAPCELL_ROW_0_1199
*7361 TAP_TAPCELL_ROW_0_1200
*7362 TAP_TAPCELL_ROW_0_1201
*7363 TAP_TAPCELL_ROW_0_1202
*7364 TAP_TAPCELL_ROW_0_1203
*7365 TAP_TAPCELL_ROW_0_1204
*7366 TAP_TAPCELL_ROW_0_1205
*7367 TAP_TAPCELL_ROW_0_1206
*7368 TAP_TAPCELL_ROW_0_1207
*7369 TAP_TAPCELL_ROW_0_1208
*7370 TAP_TAPCELL_ROW_0_1209
*7371 TAP_TAPCELL_ROW_0_1210
*7372 TAP_TAPCELL_ROW_0_1211
*7373 TAP_TAPCELL_ROW_0_1212
*7374 TAP_TAPCELL_ROW_0_1213
*7375 TAP_TAPCELL_ROW_0_1214
*7376 TAP_TAPCELL_ROW_0_1215
*7377 TAP_TAPCELL_ROW_0_1216
*7378 TAP_TAPCELL_ROW_0_1217
*7379 TAP_TAPCELL_ROW_0_1218
*7380 TAP_TAPCELL_ROW_0_1219
*7381 TAP_TAPCELL_ROW_0_1220
*7382 TAP_TAPCELL_ROW_0_1221
*7383 TAP_TAPCELL_ROW_0_1222
*7384 TAP_TAPCELL_ROW_0_1223
*7385 TAP_TAPCELL_ROW_0_1224
*7386 TAP_TAPCELL_ROW_0_1225
*7387 TAP_TAPCELL_ROW_0_1226
*7388 TAP_TAPCELL_ROW_0_1227
*7389 TAP_TAPCELL_ROW_0_1228
*7390 TAP_TAPCELL_ROW_0_1229
*7391 TAP_TAPCELL_ROW_0_1230
*7392 TAP_TAPCELL_ROW_0_1231
*7393 TAP_TAPCELL_ROW_0_1232
*7394 TAP_TAPCELL_ROW_0_1233
*7395 TAP_TAPCELL_ROW_0_1234
*7396 TAP_TAPCELL_ROW_0_1235
*7397 TAP_TAPCELL_ROW_0_1236
*7398 TAP_TAPCELL_ROW_0_1237
*7399 TAP_TAPCELL_ROW_0_1238
*7400 TAP_TAPCELL_ROW_0_1239
*7401 TAP_TAPCELL_ROW_0_1240
*7402 TAP_TAPCELL_ROW_0_1241
*7403 TAP_TAPCELL_ROW_100_1_1729
*7404 TAP_TAPCELL_ROW_100_1_1730
*7405 TAP_TAPCELL_ROW_100_2_2769
*7406 TAP_TAPCELL_ROW_100_3_2770
*7407 TAP_TAPCELL_ROW_100_3_2771
*7408 TAP_TAPCELL_ROW_101_1_1731
*7409 TAP_TAPCELL_ROW_101_3_2772
*7410 TAP_TAPCELL_ROW_102_1_1732
*7411 TAP_TAPCELL_ROW_102_1_1733
*7412 TAP_TAPCELL_ROW_102_2_2773
*7413 TAP_TAPCELL_ROW_102_3_2774
*7414 TAP_TAPCELL_ROW_102_3_2775
*7415 TAP_TAPCELL_ROW_103_1_1734
*7416 TAP_TAPCELL_ROW_103_3_2776
*7417 TAP_TAPCELL_ROW_104_1_1735
*7418 TAP_TAPCELL_ROW_104_1_1736
*7419 TAP_TAPCELL_ROW_104_2_2777
*7420 TAP_TAPCELL_ROW_104_3_2778
*7421 TAP_TAPCELL_ROW_104_3_2779
*7422 TAP_TAPCELL_ROW_105_1_1737
*7423 TAP_TAPCELL_ROW_105_3_2780
*7424 TAP_TAPCELL_ROW_106_1739
*7425 TAP_TAPCELL_ROW_106_1740
*7426 TAP_TAPCELL_ROW_106_1741
*7427 TAP_TAPCELL_ROW_106_1742
*7428 TAP_TAPCELL_ROW_106_1743
*7429 TAP_TAPCELL_ROW_106_1744
*7430 TAP_TAPCELL_ROW_106_1745
*7431 TAP_TAPCELL_ROW_106_1746
*7432 TAP_TAPCELL_ROW_106_1747
*7433 TAP_TAPCELL_ROW_106_1748
*7434 TAP_TAPCELL_ROW_106_1749
*7435 TAP_TAPCELL_ROW_106_1750
*7436 TAP_TAPCELL_ROW_106_1751
*7437 TAP_TAPCELL_ROW_106_1752
*7438 TAP_TAPCELL_ROW_106_1753
*7439 TAP_TAPCELL_ROW_106_1754
*7440 TAP_TAPCELL_ROW_106_1755
*7441 TAP_TAPCELL_ROW_106_1756
*7442 TAP_TAPCELL_ROW_106_1757
*7443 TAP_TAPCELL_ROW_106_1758
*7444 TAP_TAPCELL_ROW_106_1759
*7445 TAP_TAPCELL_ROW_106_1760
*7446 TAP_TAPCELL_ROW_106_1761
*7447 TAP_TAPCELL_ROW_106_1762
*7448 TAP_TAPCELL_ROW_106_1763
*7449 TAP_TAPCELL_ROW_106_1764
*7450 TAP_TAPCELL_ROW_106_1765
*7451 TAP_TAPCELL_ROW_106_1766
*7452 TAP_TAPCELL_ROW_106_1767
*7453 TAP_TAPCELL_ROW_106_1768
*7454 TAP_TAPCELL_ROW_106_1769
*7455 TAP_TAPCELL_ROW_106_1770
*7456 TAP_TAPCELL_ROW_106_1771
*7457 TAP_TAPCELL_ROW_106_1772
*7458 TAP_TAPCELL_ROW_106_1773
*7459 TAP_TAPCELL_ROW_106_1774
*7460 TAP_TAPCELL_ROW_106_1775
*7461 TAP_TAPCELL_ROW_106_1776
*7462 TAP_TAPCELL_ROW_106_1777
*7463 TAP_TAPCELL_ROW_106_1778
*7464 TAP_TAPCELL_ROW_106_1779
*7465 TAP_TAPCELL_ROW_106_1780
*7466 TAP_TAPCELL_ROW_106_1781
*7467 TAP_TAPCELL_ROW_106_1782
*7468 TAP_TAPCELL_ROW_106_1783
*7469 TAP_TAPCELL_ROW_106_1784
*7470 TAP_TAPCELL_ROW_106_1785
*7471 TAP_TAPCELL_ROW_106_1786
*7472 TAP_TAPCELL_ROW_106_1787
*7473 TAP_TAPCELL_ROW_106_1788
*7474 TAP_TAPCELL_ROW_106_1789
*7475 TAP_TAPCELL_ROW_106_1790
*7476 TAP_TAPCELL_ROW_106_1791
*7477 TAP_TAPCELL_ROW_106_1792
*7478 TAP_TAPCELL_ROW_106_1793
*7479 TAP_TAPCELL_ROW_106_1794
*7480 TAP_TAPCELL_ROW_107_1795
*7481 TAP_TAPCELL_ROW_107_1796
*7482 TAP_TAPCELL_ROW_107_1797
*7483 TAP_TAPCELL_ROW_107_1798
*7484 TAP_TAPCELL_ROW_107_1799
*7485 TAP_TAPCELL_ROW_107_1800
*7486 TAP_TAPCELL_ROW_107_1801
*7487 TAP_TAPCELL_ROW_107_1802
*7488 TAP_TAPCELL_ROW_107_1803
*7489 TAP_TAPCELL_ROW_107_1804
*7490 TAP_TAPCELL_ROW_107_1805
*7491 TAP_TAPCELL_ROW_107_1806
*7492 TAP_TAPCELL_ROW_107_1807
*7493 TAP_TAPCELL_ROW_107_1808
*7494 TAP_TAPCELL_ROW_107_1809
*7495 TAP_TAPCELL_ROW_107_1810
*7496 TAP_TAPCELL_ROW_107_1811
*7497 TAP_TAPCELL_ROW_107_1812
*7498 TAP_TAPCELL_ROW_107_1813
*7499 TAP_TAPCELL_ROW_107_1814
*7500 TAP_TAPCELL_ROW_107_1815
*7501 TAP_TAPCELL_ROW_107_1816
*7502 TAP_TAPCELL_ROW_107_1817
*7503 TAP_TAPCELL_ROW_107_1818
*7504 TAP_TAPCELL_ROW_107_1819
*7505 TAP_TAPCELL_ROW_107_1820
*7506 TAP_TAPCELL_ROW_107_1821
*7507 TAP_TAPCELL_ROW_108_1822
*7508 TAP_TAPCELL_ROW_108_1823
*7509 TAP_TAPCELL_ROW_108_1824
*7510 TAP_TAPCELL_ROW_108_1825
*7511 TAP_TAPCELL_ROW_108_1826
*7512 TAP_TAPCELL_ROW_108_1827
*7513 TAP_TAPCELL_ROW_108_1828
*7514 TAP_TAPCELL_ROW_108_1829
*7515 TAP_TAPCELL_ROW_108_1830
*7516 TAP_TAPCELL_ROW_108_1831
*7517 TAP_TAPCELL_ROW_108_1832
*7518 TAP_TAPCELL_ROW_108_1833
*7519 TAP_TAPCELL_ROW_108_1834
*7520 TAP_TAPCELL_ROW_108_1835
*7521 TAP_TAPCELL_ROW_108_1836
*7522 TAP_TAPCELL_ROW_108_1837
*7523 TAP_TAPCELL_ROW_108_1838
*7524 TAP_TAPCELL_ROW_108_1839
*7525 TAP_TAPCELL_ROW_108_1840
*7526 TAP_TAPCELL_ROW_108_1841
*7527 TAP_TAPCELL_ROW_108_1842
*7528 TAP_TAPCELL_ROW_108_1843
*7529 TAP_TAPCELL_ROW_108_1844
*7530 TAP_TAPCELL_ROW_108_1845
*7531 TAP_TAPCELL_ROW_108_1846
*7532 TAP_TAPCELL_ROW_108_1847
*7533 TAP_TAPCELL_ROW_108_1848
*7534 TAP_TAPCELL_ROW_108_1849
*7535 TAP_TAPCELL_ROW_109_1850
*7536 TAP_TAPCELL_ROW_109_1851
*7537 TAP_TAPCELL_ROW_109_1852
*7538 TAP_TAPCELL_ROW_109_1853
*7539 TAP_TAPCELL_ROW_109_1854
*7540 TAP_TAPCELL_ROW_109_1855
*7541 TAP_TAPCELL_ROW_109_1856
*7542 TAP_TAPCELL_ROW_109_1857
*7543 TAP_TAPCELL_ROW_109_1858
*7544 TAP_TAPCELL_ROW_109_1859
*7545 TAP_TAPCELL_ROW_109_1860
*7546 TAP_TAPCELL_ROW_109_1861
*7547 TAP_TAPCELL_ROW_109_1862
*7548 TAP_TAPCELL_ROW_109_1863
*7549 TAP_TAPCELL_ROW_109_1864
*7550 TAP_TAPCELL_ROW_109_1865
*7551 TAP_TAPCELL_ROW_109_1866
*7552 TAP_TAPCELL_ROW_109_1867
*7553 TAP_TAPCELL_ROW_109_1868
*7554 TAP_TAPCELL_ROW_109_1869
*7555 TAP_TAPCELL_ROW_109_1870
*7556 TAP_TAPCELL_ROW_109_1871
*7557 TAP_TAPCELL_ROW_109_1872
*7558 TAP_TAPCELL_ROW_109_1873
*7559 TAP_TAPCELL_ROW_109_1874
*7560 TAP_TAPCELL_ROW_109_1875
*7561 TAP_TAPCELL_ROW_109_1876
*7562 TAP_TAPCELL_ROW_10_1489
*7563 TAP_TAPCELL_ROW_10_1490
*7564 TAP_TAPCELL_ROW_10_1491
*7565 TAP_TAPCELL_ROW_10_1492
*7566 TAP_TAPCELL_ROW_10_1493
*7567 TAP_TAPCELL_ROW_10_1494
*7568 TAP_TAPCELL_ROW_10_1495
*7569 TAP_TAPCELL_ROW_10_1496
*7570 TAP_TAPCELL_ROW_10_1497
*7571 TAP_TAPCELL_ROW_10_1498
*7572 TAP_TAPCELL_ROW_10_1499
*7573 TAP_TAPCELL_ROW_10_1500
*7574 TAP_TAPCELL_ROW_10_1501
*7575 TAP_TAPCELL_ROW_10_1502
*7576 TAP_TAPCELL_ROW_10_1503
*7577 TAP_TAPCELL_ROW_10_1504
*7578 TAP_TAPCELL_ROW_10_1505
*7579 TAP_TAPCELL_ROW_10_1506
*7580 TAP_TAPCELL_ROW_10_1507
*7581 TAP_TAPCELL_ROW_10_1508
*7582 TAP_TAPCELL_ROW_10_1509
*7583 TAP_TAPCELL_ROW_10_1510
*7584 TAP_TAPCELL_ROW_10_1511
*7585 TAP_TAPCELL_ROW_10_1512
*7586 TAP_TAPCELL_ROW_10_1513
*7587 TAP_TAPCELL_ROW_10_1514
*7588 TAP_TAPCELL_ROW_10_1515
*7589 TAP_TAPCELL_ROW_10_1516
*7590 TAP_TAPCELL_ROW_110_1877
*7591 TAP_TAPCELL_ROW_110_1878
*7592 TAP_TAPCELL_ROW_110_1879
*7593 TAP_TAPCELL_ROW_110_1880
*7594 TAP_TAPCELL_ROW_110_1881
*7595 TAP_TAPCELL_ROW_110_1882
*7596 TAP_TAPCELL_ROW_110_1883
*7597 TAP_TAPCELL_ROW_110_1884
*7598 TAP_TAPCELL_ROW_110_1885
*7599 TAP_TAPCELL_ROW_110_1886
*7600 TAP_TAPCELL_ROW_110_1887
*7601 TAP_TAPCELL_ROW_110_1888
*7602 TAP_TAPCELL_ROW_110_1889
*7603 TAP_TAPCELL_ROW_110_1890
*7604 TAP_TAPCELL_ROW_110_1891
*7605 TAP_TAPCELL_ROW_110_1892
*7606 TAP_TAPCELL_ROW_110_1893
*7607 TAP_TAPCELL_ROW_110_1894
*7608 TAP_TAPCELL_ROW_110_1895
*7609 TAP_TAPCELL_ROW_110_1896
*7610 TAP_TAPCELL_ROW_110_1897
*7611 TAP_TAPCELL_ROW_110_1898
*7612 TAP_TAPCELL_ROW_110_1899
*7613 TAP_TAPCELL_ROW_110_1900
*7614 TAP_TAPCELL_ROW_110_1901
*7615 TAP_TAPCELL_ROW_110_1902
*7616 TAP_TAPCELL_ROW_110_1903
*7617 TAP_TAPCELL_ROW_110_1904
*7618 TAP_TAPCELL_ROW_111_1905
*7619 TAP_TAPCELL_ROW_111_1906
*7620 TAP_TAPCELL_ROW_111_1907
*7621 TAP_TAPCELL_ROW_111_1908
*7622 TAP_TAPCELL_ROW_111_1909
*7623 TAP_TAPCELL_ROW_111_1910
*7624 TAP_TAPCELL_ROW_111_1911
*7625 TAP_TAPCELL_ROW_111_1912
*7626 TAP_TAPCELL_ROW_111_1913
*7627 TAP_TAPCELL_ROW_111_1914
*7628 TAP_TAPCELL_ROW_111_1915
*7629 TAP_TAPCELL_ROW_111_1916
*7630 TAP_TAPCELL_ROW_111_1917
*7631 TAP_TAPCELL_ROW_111_1918
*7632 TAP_TAPCELL_ROW_111_1919
*7633 TAP_TAPCELL_ROW_111_1920
*7634 TAP_TAPCELL_ROW_111_1921
*7635 TAP_TAPCELL_ROW_111_1922
*7636 TAP_TAPCELL_ROW_111_1923
*7637 TAP_TAPCELL_ROW_111_1924
*7638 TAP_TAPCELL_ROW_111_1925
*7639 TAP_TAPCELL_ROW_111_1926
*7640 TAP_TAPCELL_ROW_111_1927
*7641 TAP_TAPCELL_ROW_111_1928
*7642 TAP_TAPCELL_ROW_111_1929
*7643 TAP_TAPCELL_ROW_111_1930
*7644 TAP_TAPCELL_ROW_111_1931
*7645 TAP_TAPCELL_ROW_112_1932
*7646 TAP_TAPCELL_ROW_112_1933
*7647 TAP_TAPCELL_ROW_112_1934
*7648 TAP_TAPCELL_ROW_112_1935
*7649 TAP_TAPCELL_ROW_112_1936
*7650 TAP_TAPCELL_ROW_112_1937
*7651 TAP_TAPCELL_ROW_112_1938
*7652 TAP_TAPCELL_ROW_112_1939
*7653 TAP_TAPCELL_ROW_112_1940
*7654 TAP_TAPCELL_ROW_112_1941
*7655 TAP_TAPCELL_ROW_112_1942
*7656 TAP_TAPCELL_ROW_112_1943
*7657 TAP_TAPCELL_ROW_112_1944
*7658 TAP_TAPCELL_ROW_112_1945
*7659 TAP_TAPCELL_ROW_112_1946
*7660 TAP_TAPCELL_ROW_112_1947
*7661 TAP_TAPCELL_ROW_112_1948
*7662 TAP_TAPCELL_ROW_112_1949
*7663 TAP_TAPCELL_ROW_112_1950
*7664 TAP_TAPCELL_ROW_112_1951
*7665 TAP_TAPCELL_ROW_112_1952
*7666 TAP_TAPCELL_ROW_112_1953
*7667 TAP_TAPCELL_ROW_112_1954
*7668 TAP_TAPCELL_ROW_112_1955
*7669 TAP_TAPCELL_ROW_112_1956
*7670 TAP_TAPCELL_ROW_112_1957
*7671 TAP_TAPCELL_ROW_112_1958
*7672 TAP_TAPCELL_ROW_112_1959
*7673 TAP_TAPCELL_ROW_113_1960
*7674 TAP_TAPCELL_ROW_113_1961
*7675 TAP_TAPCELL_ROW_113_1962
*7676 TAP_TAPCELL_ROW_113_1963
*7677 TAP_TAPCELL_ROW_113_1964
*7678 TAP_TAPCELL_ROW_113_1965
*7679 TAP_TAPCELL_ROW_113_1966
*7680 TAP_TAPCELL_ROW_113_1967
*7681 TAP_TAPCELL_ROW_113_1968
*7682 TAP_TAPCELL_ROW_113_1969
*7683 TAP_TAPCELL_ROW_113_1970
*7684 TAP_TAPCELL_ROW_113_1971
*7685 TAP_TAPCELL_ROW_113_1972
*7686 TAP_TAPCELL_ROW_113_1973
*7687 TAP_TAPCELL_ROW_113_1974
*7688 TAP_TAPCELL_ROW_113_1975
*7689 TAP_TAPCELL_ROW_113_1976
*7690 TAP_TAPCELL_ROW_113_1977
*7691 TAP_TAPCELL_ROW_113_1978
*7692 TAP_TAPCELL_ROW_113_1979
*7693 TAP_TAPCELL_ROW_113_1980
*7694 TAP_TAPCELL_ROW_113_1981
*7695 TAP_TAPCELL_ROW_113_1982
*7696 TAP_TAPCELL_ROW_113_1983
*7697 TAP_TAPCELL_ROW_113_1984
*7698 TAP_TAPCELL_ROW_113_1985
*7699 TAP_TAPCELL_ROW_113_1986
*7700 TAP_TAPCELL_ROW_114_1987
*7701 TAP_TAPCELL_ROW_114_1988
*7702 TAP_TAPCELL_ROW_114_1989
*7703 TAP_TAPCELL_ROW_114_1990
*7704 TAP_TAPCELL_ROW_114_1991
*7705 TAP_TAPCELL_ROW_114_1992
*7706 TAP_TAPCELL_ROW_114_1993
*7707 TAP_TAPCELL_ROW_114_1994
*7708 TAP_TAPCELL_ROW_114_1995
*7709 TAP_TAPCELL_ROW_114_1996
*7710 TAP_TAPCELL_ROW_114_1997
*7711 TAP_TAPCELL_ROW_114_1998
*7712 TAP_TAPCELL_ROW_114_1999
*7713 TAP_TAPCELL_ROW_114_2000
*7714 TAP_TAPCELL_ROW_114_2001
*7715 TAP_TAPCELL_ROW_114_2002
*7716 TAP_TAPCELL_ROW_114_2003
*7717 TAP_TAPCELL_ROW_114_2004
*7718 TAP_TAPCELL_ROW_114_2005
*7719 TAP_TAPCELL_ROW_114_2006
*7720 TAP_TAPCELL_ROW_114_2007
*7721 TAP_TAPCELL_ROW_114_2008
*7722 TAP_TAPCELL_ROW_114_2009
*7723 TAP_TAPCELL_ROW_114_2010
*7724 TAP_TAPCELL_ROW_114_2011
*7725 TAP_TAPCELL_ROW_114_2012
*7726 TAP_TAPCELL_ROW_114_2013
*7727 TAP_TAPCELL_ROW_114_2014
*7728 TAP_TAPCELL_ROW_114_2015
*7729 TAP_TAPCELL_ROW_114_2016
*7730 TAP_TAPCELL_ROW_114_2017
*7731 TAP_TAPCELL_ROW_114_2018
*7732 TAP_TAPCELL_ROW_114_2019
*7733 TAP_TAPCELL_ROW_114_2020
*7734 TAP_TAPCELL_ROW_114_2021
*7735 TAP_TAPCELL_ROW_114_2022
*7736 TAP_TAPCELL_ROW_114_2023
*7737 TAP_TAPCELL_ROW_114_2024
*7738 TAP_TAPCELL_ROW_114_2025
*7739 TAP_TAPCELL_ROW_114_2026
*7740 TAP_TAPCELL_ROW_114_2027
*7741 TAP_TAPCELL_ROW_114_2028
*7742 TAP_TAPCELL_ROW_114_2029
*7743 TAP_TAPCELL_ROW_114_2030
*7744 TAP_TAPCELL_ROW_114_2031
*7745 TAP_TAPCELL_ROW_114_2032
*7746 TAP_TAPCELL_ROW_114_2033
*7747 TAP_TAPCELL_ROW_114_2034
*7748 TAP_TAPCELL_ROW_114_2035
*7749 TAP_TAPCELL_ROW_114_2036
*7750 TAP_TAPCELL_ROW_114_2037
*7751 TAP_TAPCELL_ROW_114_2038
*7752 TAP_TAPCELL_ROW_114_2039
*7753 TAP_TAPCELL_ROW_114_2040
*7754 TAP_TAPCELL_ROW_114_2041
*7755 TAP_TAPCELL_ROW_114_2042
*7756 TAP_TAPCELL_ROW_115_1_1738
*7757 TAP_TAPCELL_ROW_115_3_2781
*7758 TAP_TAPCELL_ROW_116_1_2043
*7759 TAP_TAPCELL_ROW_116_1_2044
*7760 TAP_TAPCELL_ROW_116_2_2782
*7761 TAP_TAPCELL_ROW_116_3_2783
*7762 TAP_TAPCELL_ROW_116_3_2784
*7763 TAP_TAPCELL_ROW_117_1_2045
*7764 TAP_TAPCELL_ROW_117_3_2785
*7765 TAP_TAPCELL_ROW_118_1_2046
*7766 TAP_TAPCELL_ROW_118_1_2047
*7767 TAP_TAPCELL_ROW_118_2_2786
*7768 TAP_TAPCELL_ROW_118_3_2787
*7769 TAP_TAPCELL_ROW_118_3_2788
*7770 TAP_TAPCELL_ROW_119_1_2048
*7771 TAP_TAPCELL_ROW_119_3_2789
*7772 TAP_TAPCELL_ROW_11_1517
*7773 TAP_TAPCELL_ROW_11_1518
*7774 TAP_TAPCELL_ROW_11_1519
*7775 TAP_TAPCELL_ROW_11_1520
*7776 TAP_TAPCELL_ROW_11_1521
*7777 TAP_TAPCELL_ROW_11_1522
*7778 TAP_TAPCELL_ROW_11_1523
*7779 TAP_TAPCELL_ROW_11_1524
*7780 TAP_TAPCELL_ROW_11_1525
*7781 TAP_TAPCELL_ROW_11_1526
*7782 TAP_TAPCELL_ROW_11_1527
*7783 TAP_TAPCELL_ROW_11_1528
*7784 TAP_TAPCELL_ROW_11_1529
*7785 TAP_TAPCELL_ROW_11_1530
*7786 TAP_TAPCELL_ROW_11_1531
*7787 TAP_TAPCELL_ROW_11_1532
*7788 TAP_TAPCELL_ROW_11_1533
*7789 TAP_TAPCELL_ROW_11_1534
*7790 TAP_TAPCELL_ROW_11_1535
*7791 TAP_TAPCELL_ROW_11_1536
*7792 TAP_TAPCELL_ROW_11_1537
*7793 TAP_TAPCELL_ROW_11_1538
*7794 TAP_TAPCELL_ROW_11_1539
*7795 TAP_TAPCELL_ROW_11_1540
*7796 TAP_TAPCELL_ROW_11_1541
*7797 TAP_TAPCELL_ROW_11_1542
*7798 TAP_TAPCELL_ROW_11_1543
*7799 TAP_TAPCELL_ROW_120_1_2049
*7800 TAP_TAPCELL_ROW_120_1_2050
*7801 TAP_TAPCELL_ROW_120_2_2790
*7802 TAP_TAPCELL_ROW_120_3_2791
*7803 TAP_TAPCELL_ROW_120_3_2792
*7804 TAP_TAPCELL_ROW_121_1_2051
*7805 TAP_TAPCELL_ROW_121_3_2793
*7806 TAP_TAPCELL_ROW_122_1_2052
*7807 TAP_TAPCELL_ROW_122_1_2053
*7808 TAP_TAPCELL_ROW_122_2_2794
*7809 TAP_TAPCELL_ROW_122_3_2795
*7810 TAP_TAPCELL_ROW_122_3_2796
*7811 TAP_TAPCELL_ROW_123_1_2054
*7812 TAP_TAPCELL_ROW_123_3_2797
*7813 TAP_TAPCELL_ROW_124_1_2055
*7814 TAP_TAPCELL_ROW_124_1_2056
*7815 TAP_TAPCELL_ROW_124_2_2798
*7816 TAP_TAPCELL_ROW_124_3_2799
*7817 TAP_TAPCELL_ROW_124_3_2800
*7818 TAP_TAPCELL_ROW_125_1_2057
*7819 TAP_TAPCELL_ROW_125_3_2801
*7820 TAP_TAPCELL_ROW_126_1_2058
*7821 TAP_TAPCELL_ROW_126_1_2059
*7822 TAP_TAPCELL_ROW_126_2_2802
*7823 TAP_TAPCELL_ROW_126_3_2803
*7824 TAP_TAPCELL_ROW_126_3_2804
*7825 TAP_TAPCELL_ROW_127_1_2060
*7826 TAP_TAPCELL_ROW_127_3_2805
*7827 TAP_TAPCELL_ROW_128_1_2061
*7828 TAP_TAPCELL_ROW_128_1_2062
*7829 TAP_TAPCELL_ROW_128_2_2806
*7830 TAP_TAPCELL_ROW_128_3_2807
*7831 TAP_TAPCELL_ROW_128_3_2808
*7832 TAP_TAPCELL_ROW_129_1_2063
*7833 TAP_TAPCELL_ROW_129_3_2809
*7834 TAP_TAPCELL_ROW_12_1544
*7835 TAP_TAPCELL_ROW_12_1545
*7836 TAP_TAPCELL_ROW_12_1546
*7837 TAP_TAPCELL_ROW_12_1547
*7838 TAP_TAPCELL_ROW_12_1548
*7839 TAP_TAPCELL_ROW_12_1549
*7840 TAP_TAPCELL_ROW_12_1550
*7841 TAP_TAPCELL_ROW_12_1551
*7842 TAP_TAPCELL_ROW_12_1552
*7843 TAP_TAPCELL_ROW_12_1553
*7844 TAP_TAPCELL_ROW_12_1554
*7845 TAP_TAPCELL_ROW_12_1555
*7846 TAP_TAPCELL_ROW_12_1556
*7847 TAP_TAPCELL_ROW_12_1557
*7848 TAP_TAPCELL_ROW_12_1558
*7849 TAP_TAPCELL_ROW_12_1559
*7850 TAP_TAPCELL_ROW_12_1560
*7851 TAP_TAPCELL_ROW_12_1561
*7852 TAP_TAPCELL_ROW_12_1562
*7853 TAP_TAPCELL_ROW_12_1563
*7854 TAP_TAPCELL_ROW_12_1564
*7855 TAP_TAPCELL_ROW_12_1565
*7856 TAP_TAPCELL_ROW_12_1566
*7857 TAP_TAPCELL_ROW_12_1567
*7858 TAP_TAPCELL_ROW_12_1568
*7859 TAP_TAPCELL_ROW_12_1569
*7860 TAP_TAPCELL_ROW_12_1570
*7861 TAP_TAPCELL_ROW_12_1571
*7862 TAP_TAPCELL_ROW_12_1572
*7863 TAP_TAPCELL_ROW_12_1573
*7864 TAP_TAPCELL_ROW_12_1574
*7865 TAP_TAPCELL_ROW_12_1575
*7866 TAP_TAPCELL_ROW_12_1576
*7867 TAP_TAPCELL_ROW_12_1577
*7868 TAP_TAPCELL_ROW_12_1578
*7869 TAP_TAPCELL_ROW_12_1579
*7870 TAP_TAPCELL_ROW_12_1580
*7871 TAP_TAPCELL_ROW_12_1581
*7872 TAP_TAPCELL_ROW_12_1582
*7873 TAP_TAPCELL_ROW_12_1583
*7874 TAP_TAPCELL_ROW_12_1584
*7875 TAP_TAPCELL_ROW_12_1585
*7876 TAP_TAPCELL_ROW_12_1586
*7877 TAP_TAPCELL_ROW_12_1587
*7878 TAP_TAPCELL_ROW_12_1588
*7879 TAP_TAPCELL_ROW_12_1589
*7880 TAP_TAPCELL_ROW_12_1590
*7881 TAP_TAPCELL_ROW_12_1591
*7882 TAP_TAPCELL_ROW_12_1592
*7883 TAP_TAPCELL_ROW_12_1593
*7884 TAP_TAPCELL_ROW_12_1594
*7885 TAP_TAPCELL_ROW_12_1595
*7886 TAP_TAPCELL_ROW_12_1596
*7887 TAP_TAPCELL_ROW_12_1597
*7888 TAP_TAPCELL_ROW_12_1598
*7889 TAP_TAPCELL_ROW_12_1599
*7890 TAP_TAPCELL_ROW_130_1_2064
*7891 TAP_TAPCELL_ROW_130_1_2065
*7892 TAP_TAPCELL_ROW_130_2_2810
*7893 TAP_TAPCELL_ROW_130_3_2811
*7894 TAP_TAPCELL_ROW_130_3_2812
*7895 TAP_TAPCELL_ROW_131_1_2066
*7896 TAP_TAPCELL_ROW_131_3_2813
*7897 TAP_TAPCELL_ROW_132_1_2067
*7898 TAP_TAPCELL_ROW_132_1_2068
*7899 TAP_TAPCELL_ROW_132_2_2814
*7900 TAP_TAPCELL_ROW_132_3_2815
*7901 TAP_TAPCELL_ROW_132_3_2816
*7902 TAP_TAPCELL_ROW_133_1_2069
*7903 TAP_TAPCELL_ROW_133_3_2817
*7904 TAP_TAPCELL_ROW_134_1_2070
*7905 TAP_TAPCELL_ROW_134_1_2071
*7906 TAP_TAPCELL_ROW_134_2_2818
*7907 TAP_TAPCELL_ROW_134_3_2819
*7908 TAP_TAPCELL_ROW_134_3_2820
*7909 TAP_TAPCELL_ROW_135_1_2072
*7910 TAP_TAPCELL_ROW_135_3_2821
*7911 TAP_TAPCELL_ROW_136_1_2073
*7912 TAP_TAPCELL_ROW_136_1_2074
*7913 TAP_TAPCELL_ROW_136_2_2822
*7914 TAP_TAPCELL_ROW_136_3_2823
*7915 TAP_TAPCELL_ROW_136_3_2824
*7916 TAP_TAPCELL_ROW_137_1_2075
*7917 TAP_TAPCELL_ROW_137_3_2825
*7918 TAP_TAPCELL_ROW_138_1_2076
*7919 TAP_TAPCELL_ROW_138_1_2077
*7920 TAP_TAPCELL_ROW_138_2_2826
*7921 TAP_TAPCELL_ROW_138_3_2827
*7922 TAP_TAPCELL_ROW_138_3_2828
*7923 TAP_TAPCELL_ROW_139_1_2078
*7924 TAP_TAPCELL_ROW_139_3_2829
*7925 TAP_TAPCELL_ROW_13_1_2595
*7926 TAP_TAPCELL_ROW_13_3_2596
*7927 TAP_TAPCELL_ROW_140_1_2079
*7928 TAP_TAPCELL_ROW_140_1_2080
*7929 TAP_TAPCELL_ROW_140_2_2830
*7930 TAP_TAPCELL_ROW_140_3_2831
*7931 TAP_TAPCELL_ROW_140_3_2832
*7932 TAP_TAPCELL_ROW_141_1_2081
*7933 TAP_TAPCELL_ROW_141_3_2833
*7934 TAP_TAPCELL_ROW_142_1_2082
*7935 TAP_TAPCELL_ROW_142_1_2083
*7936 TAP_TAPCELL_ROW_142_2_2834
*7937 TAP_TAPCELL_ROW_142_3_2835
*7938 TAP_TAPCELL_ROW_142_3_2836
*7939 TAP_TAPCELL_ROW_143_1_2084
*7940 TAP_TAPCELL_ROW_143_3_2837
*7941 TAP_TAPCELL_ROW_144_1_2085
*7942 TAP_TAPCELL_ROW_144_1_2086
*7943 TAP_TAPCELL_ROW_144_2_2838
*7944 TAP_TAPCELL_ROW_144_3_2839
*7945 TAP_TAPCELL_ROW_144_3_2840
*7946 TAP_TAPCELL_ROW_145_1_2087
*7947 TAP_TAPCELL_ROW_145_3_2841
*7948 TAP_TAPCELL_ROW_146_1_2088
*7949 TAP_TAPCELL_ROW_146_1_2089
*7950 TAP_TAPCELL_ROW_146_2_2842
*7951 TAP_TAPCELL_ROW_146_3_2843
*7952 TAP_TAPCELL_ROW_146_3_2844
*7953 TAP_TAPCELL_ROW_147_1_2090
*7954 TAP_TAPCELL_ROW_147_3_2845
*7955 TAP_TAPCELL_ROW_148_1_2091
*7956 TAP_TAPCELL_ROW_148_1_2092
*7957 TAP_TAPCELL_ROW_148_2_2846
*7958 TAP_TAPCELL_ROW_148_3_2847
*7959 TAP_TAPCELL_ROW_148_3_2848
*7960 TAP_TAPCELL_ROW_149_1_2093
*7961 TAP_TAPCELL_ROW_149_3_2849
*7962 TAP_TAPCELL_ROW_14_1_1600
*7963 TAP_TAPCELL_ROW_14_1_1601
*7964 TAP_TAPCELL_ROW_14_2_2597
*7965 TAP_TAPCELL_ROW_14_3_2598
*7966 TAP_TAPCELL_ROW_14_3_2599
*7967 TAP_TAPCELL_ROW_150_1_2094
*7968 TAP_TAPCELL_ROW_150_1_2095
*7969 TAP_TAPCELL_ROW_150_2_2850
*7970 TAP_TAPCELL_ROW_150_3_2851
*7971 TAP_TAPCELL_ROW_150_3_2852
*7972 TAP_TAPCELL_ROW_151_1_2096
*7973 TAP_TAPCELL_ROW_151_3_2853
*7974 TAP_TAPCELL_ROW_152_1_2097
*7975 TAP_TAPCELL_ROW_152_1_2098
*7976 TAP_TAPCELL_ROW_152_2_2854
*7977 TAP_TAPCELL_ROW_152_3_2855
*7978 TAP_TAPCELL_ROW_152_3_2856
*7979 TAP_TAPCELL_ROW_153_1_2099
*7980 TAP_TAPCELL_ROW_153_3_2857
*7981 TAP_TAPCELL_ROW_154_1_2100
*7982 TAP_TAPCELL_ROW_154_1_2101
*7983 TAP_TAPCELL_ROW_154_2_2858
*7984 TAP_TAPCELL_ROW_154_3_2859
*7985 TAP_TAPCELL_ROW_154_3_2860
*7986 TAP_TAPCELL_ROW_155_1_2102
*7987 TAP_TAPCELL_ROW_155_3_2861
*7988 TAP_TAPCELL_ROW_156_1_2103
*7989 TAP_TAPCELL_ROW_156_1_2104
*7990 TAP_TAPCELL_ROW_156_2_2862
*7991 TAP_TAPCELL_ROW_156_3_2863
*7992 TAP_TAPCELL_ROW_156_3_2864
*7993 TAP_TAPCELL_ROW_157_1_2105
*7994 TAP_TAPCELL_ROW_157_3_2865
*7995 TAP_TAPCELL_ROW_158_1_2106
*7996 TAP_TAPCELL_ROW_158_1_2107
*7997 TAP_TAPCELL_ROW_158_2_2866
*7998 TAP_TAPCELL_ROW_158_3_2867
*7999 TAP_TAPCELL_ROW_158_3_2868
*8000 TAP_TAPCELL_ROW_159_1_2108
*8001 TAP_TAPCELL_ROW_159_3_2869
*8002 TAP_TAPCELL_ROW_15_1_1602
*8003 TAP_TAPCELL_ROW_15_3_2600
*8004 TAP_TAPCELL_ROW_160_1_2109
*8005 TAP_TAPCELL_ROW_160_1_2110
*8006 TAP_TAPCELL_ROW_160_2_2870
*8007 TAP_TAPCELL_ROW_160_3_2871
*8008 TAP_TAPCELL_ROW_160_3_2872
*8009 TAP_TAPCELL_ROW_161_1_2111
*8010 TAP_TAPCELL_ROW_161_3_2873
*8011 TAP_TAPCELL_ROW_162_1_2112
*8012 TAP_TAPCELL_ROW_162_1_2113
*8013 TAP_TAPCELL_ROW_162_2_2874
*8014 TAP_TAPCELL_ROW_162_3_2875
*8015 TAP_TAPCELL_ROW_162_3_2876
*8016 TAP_TAPCELL_ROW_163_1_2114
*8017 TAP_TAPCELL_ROW_163_3_2877
*8018 TAP_TAPCELL_ROW_164_1_2115
*8019 TAP_TAPCELL_ROW_164_1_2116
*8020 TAP_TAPCELL_ROW_164_2_2878
*8021 TAP_TAPCELL_ROW_164_3_2879
*8022 TAP_TAPCELL_ROW_164_3_2880
*8023 TAP_TAPCELL_ROW_165_1_2117
*8024 TAP_TAPCELL_ROW_165_3_2881
*8025 TAP_TAPCELL_ROW_166_1_2118
*8026 TAP_TAPCELL_ROW_166_1_2119
*8027 TAP_TAPCELL_ROW_166_2_2882
*8028 TAP_TAPCELL_ROW_166_3_2883
*8029 TAP_TAPCELL_ROW_166_3_2884
*8030 TAP_TAPCELL_ROW_167_1_2120
*8031 TAP_TAPCELL_ROW_167_3_2885
*8032 TAP_TAPCELL_ROW_168_1_2121
*8033 TAP_TAPCELL_ROW_168_1_2122
*8034 TAP_TAPCELL_ROW_168_2_2886
*8035 TAP_TAPCELL_ROW_168_3_2887
*8036 TAP_TAPCELL_ROW_168_3_2888
*8037 TAP_TAPCELL_ROW_169_1_2123
*8038 TAP_TAPCELL_ROW_169_3_2889
*8039 TAP_TAPCELL_ROW_16_1_1603
*8040 TAP_TAPCELL_ROW_16_1_1604
*8041 TAP_TAPCELL_ROW_16_2_2601
*8042 TAP_TAPCELL_ROW_16_3_2602
*8043 TAP_TAPCELL_ROW_16_3_2603
*8044 TAP_TAPCELL_ROW_170_1_2124
*8045 TAP_TAPCELL_ROW_170_1_2125
*8046 TAP_TAPCELL_ROW_170_2_2890
*8047 TAP_TAPCELL_ROW_170_3_2891
*8048 TAP_TAPCELL_ROW_170_3_2892
*8049 TAP_TAPCELL_ROW_171_1_2126
*8050 TAP_TAPCELL_ROW_171_3_2893
*8051 TAP_TAPCELL_ROW_172_1_2127
*8052 TAP_TAPCELL_ROW_172_1_2128
*8053 TAP_TAPCELL_ROW_172_2_2894
*8054 TAP_TAPCELL_ROW_172_3_2895
*8055 TAP_TAPCELL_ROW_172_3_2896
*8056 TAP_TAPCELL_ROW_173_1_2129
*8057 TAP_TAPCELL_ROW_173_3_2897
*8058 TAP_TAPCELL_ROW_174_1_2130
*8059 TAP_TAPCELL_ROW_174_1_2131
*8060 TAP_TAPCELL_ROW_174_2_2898
*8061 TAP_TAPCELL_ROW_174_3_2899
*8062 TAP_TAPCELL_ROW_174_3_2900
*8063 TAP_TAPCELL_ROW_175_1_2132
*8064 TAP_TAPCELL_ROW_175_3_2901
*8065 TAP_TAPCELL_ROW_176_1_2133
*8066 TAP_TAPCELL_ROW_176_1_2134
*8067 TAP_TAPCELL_ROW_176_2_2902
*8068 TAP_TAPCELL_ROW_176_3_2903
*8069 TAP_TAPCELL_ROW_176_3_2904
*8070 TAP_TAPCELL_ROW_177_1_2135
*8071 TAP_TAPCELL_ROW_177_3_2905
*8072 TAP_TAPCELL_ROW_178_1_2136
*8073 TAP_TAPCELL_ROW_178_1_2137
*8074 TAP_TAPCELL_ROW_178_2_2906
*8075 TAP_TAPCELL_ROW_178_3_2907
*8076 TAP_TAPCELL_ROW_178_3_2908
*8077 TAP_TAPCELL_ROW_179_1_2138
*8078 TAP_TAPCELL_ROW_179_3_2909
*8079 TAP_TAPCELL_ROW_17_1_1605
*8080 TAP_TAPCELL_ROW_17_3_2604
*8081 TAP_TAPCELL_ROW_180_1_2139
*8082 TAP_TAPCELL_ROW_180_1_2140
*8083 TAP_TAPCELL_ROW_180_2_2910
*8084 TAP_TAPCELL_ROW_180_3_2911
*8085 TAP_TAPCELL_ROW_180_3_2912
*8086 TAP_TAPCELL_ROW_181_1_2141
*8087 TAP_TAPCELL_ROW_181_3_2913
*8088 TAP_TAPCELL_ROW_182_1_2142
*8089 TAP_TAPCELL_ROW_182_1_2143
*8090 TAP_TAPCELL_ROW_182_2_2914
*8091 TAP_TAPCELL_ROW_182_3_2915
*8092 TAP_TAPCELL_ROW_182_3_2916
*8093 TAP_TAPCELL_ROW_183_1_2144
*8094 TAP_TAPCELL_ROW_183_3_2917
*8095 TAP_TAPCELL_ROW_184_1_2145
*8096 TAP_TAPCELL_ROW_184_1_2146
*8097 TAP_TAPCELL_ROW_184_2_2918
*8098 TAP_TAPCELL_ROW_184_3_2919
*8099 TAP_TAPCELL_ROW_184_3_2920
*8100 TAP_TAPCELL_ROW_185_1_2147
*8101 TAP_TAPCELL_ROW_185_3_2921
*8102 TAP_TAPCELL_ROW_186_1_2148
*8103 TAP_TAPCELL_ROW_186_1_2149
*8104 TAP_TAPCELL_ROW_186_2_2922
*8105 TAP_TAPCELL_ROW_186_3_2923
*8106 TAP_TAPCELL_ROW_186_3_2924
*8107 TAP_TAPCELL_ROW_187_1_2150
*8108 TAP_TAPCELL_ROW_187_3_2925
*8109 TAP_TAPCELL_ROW_188_1_2151
*8110 TAP_TAPCELL_ROW_188_1_2152
*8111 TAP_TAPCELL_ROW_188_2_2926
*8112 TAP_TAPCELL_ROW_188_3_2927
*8113 TAP_TAPCELL_ROW_188_3_2928
*8114 TAP_TAPCELL_ROW_189_1_2153
*8115 TAP_TAPCELL_ROW_189_3_2929
*8116 TAP_TAPCELL_ROW_18_1_1606
*8117 TAP_TAPCELL_ROW_18_1_1607
*8118 TAP_TAPCELL_ROW_18_2_2605
*8119 TAP_TAPCELL_ROW_18_3_2606
*8120 TAP_TAPCELL_ROW_18_3_2607
*8121 TAP_TAPCELL_ROW_190_1_2154
*8122 TAP_TAPCELL_ROW_190_1_2155
*8123 TAP_TAPCELL_ROW_190_2_2930
*8124 TAP_TAPCELL_ROW_190_3_2931
*8125 TAP_TAPCELL_ROW_190_3_2932
*8126 TAP_TAPCELL_ROW_191_1_2156
*8127 TAP_TAPCELL_ROW_191_3_2933
*8128 TAP_TAPCELL_ROW_192_1_2157
*8129 TAP_TAPCELL_ROW_192_1_2158
*8130 TAP_TAPCELL_ROW_192_2_2934
*8131 TAP_TAPCELL_ROW_192_3_2935
*8132 TAP_TAPCELL_ROW_192_3_2936
*8133 TAP_TAPCELL_ROW_193_1_2159
*8134 TAP_TAPCELL_ROW_193_3_2937
*8135 TAP_TAPCELL_ROW_194_1_2160
*8136 TAP_TAPCELL_ROW_194_1_2161
*8137 TAP_TAPCELL_ROW_194_2_2938
*8138 TAP_TAPCELL_ROW_194_3_2939
*8139 TAP_TAPCELL_ROW_194_3_2940
*8140 TAP_TAPCELL_ROW_195_1_2162
*8141 TAP_TAPCELL_ROW_195_3_2941
*8142 TAP_TAPCELL_ROW_196_1_2163
*8143 TAP_TAPCELL_ROW_196_1_2164
*8144 TAP_TAPCELL_ROW_196_2_2942
*8145 TAP_TAPCELL_ROW_196_3_2943
*8146 TAP_TAPCELL_ROW_196_3_2944
*8147 TAP_TAPCELL_ROW_197_1_2165
*8148 TAP_TAPCELL_ROW_197_3_2945
*8149 TAP_TAPCELL_ROW_198_1_2166
*8150 TAP_TAPCELL_ROW_198_1_2167
*8151 TAP_TAPCELL_ROW_198_2_2946
*8152 TAP_TAPCELL_ROW_198_3_2947
*8153 TAP_TAPCELL_ROW_198_3_2948
*8154 TAP_TAPCELL_ROW_199_1_2168
*8155 TAP_TAPCELL_ROW_199_3_2949
*8156 TAP_TAPCELL_ROW_19_1_1608
*8157 TAP_TAPCELL_ROW_19_3_2608
*8158 TAP_TAPCELL_ROW_1_1242
*8159 TAP_TAPCELL_ROW_1_1243
*8160 TAP_TAPCELL_ROW_1_1244
*8161 TAP_TAPCELL_ROW_1_1245
*8162 TAP_TAPCELL_ROW_1_1246
*8163 TAP_TAPCELL_ROW_1_1247
*8164 TAP_TAPCELL_ROW_1_1248
*8165 TAP_TAPCELL_ROW_1_1249
*8166 TAP_TAPCELL_ROW_1_1250
*8167 TAP_TAPCELL_ROW_1_1251
*8168 TAP_TAPCELL_ROW_1_1252
*8169 TAP_TAPCELL_ROW_1_1253
*8170 TAP_TAPCELL_ROW_1_1254
*8171 TAP_TAPCELL_ROW_1_1255
*8172 TAP_TAPCELL_ROW_1_1256
*8173 TAP_TAPCELL_ROW_1_1257
*8174 TAP_TAPCELL_ROW_1_1258
*8175 TAP_TAPCELL_ROW_1_1259
*8176 TAP_TAPCELL_ROW_1_1260
*8177 TAP_TAPCELL_ROW_1_1261
*8178 TAP_TAPCELL_ROW_1_1262
*8179 TAP_TAPCELL_ROW_1_1263
*8180 TAP_TAPCELL_ROW_1_1264
*8181 TAP_TAPCELL_ROW_1_1265
*8182 TAP_TAPCELL_ROW_1_1266
*8183 TAP_TAPCELL_ROW_1_1267
*8184 TAP_TAPCELL_ROW_1_1268
*8185 TAP_TAPCELL_ROW_200_1_2169
*8186 TAP_TAPCELL_ROW_200_1_2170
*8187 TAP_TAPCELL_ROW_200_2_2950
*8188 TAP_TAPCELL_ROW_200_3_2951
*8189 TAP_TAPCELL_ROW_200_3_2952
*8190 TAP_TAPCELL_ROW_201_1_2171
*8191 TAP_TAPCELL_ROW_201_3_2953
*8192 TAP_TAPCELL_ROW_202_1_2172
*8193 TAP_TAPCELL_ROW_202_1_2173
*8194 TAP_TAPCELL_ROW_202_2_2954
*8195 TAP_TAPCELL_ROW_202_3_2955
*8196 TAP_TAPCELL_ROW_202_3_2956
*8197 TAP_TAPCELL_ROW_203_1_2174
*8198 TAP_TAPCELL_ROW_203_3_2957
*8199 TAP_TAPCELL_ROW_204_1_2175
*8200 TAP_TAPCELL_ROW_204_1_2176
*8201 TAP_TAPCELL_ROW_204_2_2958
*8202 TAP_TAPCELL_ROW_204_3_2959
*8203 TAP_TAPCELL_ROW_204_3_2960
*8204 TAP_TAPCELL_ROW_205_1_2177
*8205 TAP_TAPCELL_ROW_205_3_2961
*8206 TAP_TAPCELL_ROW_206_1_2178
*8207 TAP_TAPCELL_ROW_206_1_2179
*8208 TAP_TAPCELL_ROW_206_2_2962
*8209 TAP_TAPCELL_ROW_206_3_2963
*8210 TAP_TAPCELL_ROW_206_3_2964
*8211 TAP_TAPCELL_ROW_207_1_2180
*8212 TAP_TAPCELL_ROW_207_3_2965
*8213 TAP_TAPCELL_ROW_208_2181
*8214 TAP_TAPCELL_ROW_208_2182
*8215 TAP_TAPCELL_ROW_208_2183
*8216 TAP_TAPCELL_ROW_208_2184
*8217 TAP_TAPCELL_ROW_208_2185
*8218 TAP_TAPCELL_ROW_208_2186
*8219 TAP_TAPCELL_ROW_208_2187
*8220 TAP_TAPCELL_ROW_208_2188
*8221 TAP_TAPCELL_ROW_208_2189
*8222 TAP_TAPCELL_ROW_208_2190
*8223 TAP_TAPCELL_ROW_208_2191
*8224 TAP_TAPCELL_ROW_208_2192
*8225 TAP_TAPCELL_ROW_208_2193
*8226 TAP_TAPCELL_ROW_208_2194
*8227 TAP_TAPCELL_ROW_208_2195
*8228 TAP_TAPCELL_ROW_208_2196
*8229 TAP_TAPCELL_ROW_208_2197
*8230 TAP_TAPCELL_ROW_208_2198
*8231 TAP_TAPCELL_ROW_208_2199
*8232 TAP_TAPCELL_ROW_208_2200
*8233 TAP_TAPCELL_ROW_208_2201
*8234 TAP_TAPCELL_ROW_208_2202
*8235 TAP_TAPCELL_ROW_208_2203
*8236 TAP_TAPCELL_ROW_208_2204
*8237 TAP_TAPCELL_ROW_208_2205
*8238 TAP_TAPCELL_ROW_208_2206
*8239 TAP_TAPCELL_ROW_208_2207
*8240 TAP_TAPCELL_ROW_208_2208
*8241 TAP_TAPCELL_ROW_208_2209
*8242 TAP_TAPCELL_ROW_208_2210
*8243 TAP_TAPCELL_ROW_208_2211
*8244 TAP_TAPCELL_ROW_208_2212
*8245 TAP_TAPCELL_ROW_208_2213
*8246 TAP_TAPCELL_ROW_208_2214
*8247 TAP_TAPCELL_ROW_208_2215
*8248 TAP_TAPCELL_ROW_208_2216
*8249 TAP_TAPCELL_ROW_208_2217
*8250 TAP_TAPCELL_ROW_208_2218
*8251 TAP_TAPCELL_ROW_208_2219
*8252 TAP_TAPCELL_ROW_208_2220
*8253 TAP_TAPCELL_ROW_208_2221
*8254 TAP_TAPCELL_ROW_208_2222
*8255 TAP_TAPCELL_ROW_208_2223
*8256 TAP_TAPCELL_ROW_208_2224
*8257 TAP_TAPCELL_ROW_208_2225
*8258 TAP_TAPCELL_ROW_208_2226
*8259 TAP_TAPCELL_ROW_208_2227
*8260 TAP_TAPCELL_ROW_208_2228
*8261 TAP_TAPCELL_ROW_208_2229
*8262 TAP_TAPCELL_ROW_208_2230
*8263 TAP_TAPCELL_ROW_208_2231
*8264 TAP_TAPCELL_ROW_208_2232
*8265 TAP_TAPCELL_ROW_208_2233
*8266 TAP_TAPCELL_ROW_208_2234
*8267 TAP_TAPCELL_ROW_208_2235
*8268 TAP_TAPCELL_ROW_208_2236
*8269 TAP_TAPCELL_ROW_209_2237
*8270 TAP_TAPCELL_ROW_209_2238
*8271 TAP_TAPCELL_ROW_209_2239
*8272 TAP_TAPCELL_ROW_209_2240
*8273 TAP_TAPCELL_ROW_209_2241
*8274 TAP_TAPCELL_ROW_209_2242
*8275 TAP_TAPCELL_ROW_209_2243
*8276 TAP_TAPCELL_ROW_209_2244
*8277 TAP_TAPCELL_ROW_209_2245
*8278 TAP_TAPCELL_ROW_209_2246
*8279 TAP_TAPCELL_ROW_209_2247
*8280 TAP_TAPCELL_ROW_209_2248
*8281 TAP_TAPCELL_ROW_209_2249
*8282 TAP_TAPCELL_ROW_209_2250
*8283 TAP_TAPCELL_ROW_209_2251
*8284 TAP_TAPCELL_ROW_209_2252
*8285 TAP_TAPCELL_ROW_209_2253
*8286 TAP_TAPCELL_ROW_209_2254
*8287 TAP_TAPCELL_ROW_209_2255
*8288 TAP_TAPCELL_ROW_209_2256
*8289 TAP_TAPCELL_ROW_209_2257
*8290 TAP_TAPCELL_ROW_209_2258
*8291 TAP_TAPCELL_ROW_209_2259
*8292 TAP_TAPCELL_ROW_209_2260
*8293 TAP_TAPCELL_ROW_209_2261
*8294 TAP_TAPCELL_ROW_209_2262
*8295 TAP_TAPCELL_ROW_209_2263
*8296 TAP_TAPCELL_ROW_20_1_1609
*8297 TAP_TAPCELL_ROW_20_1_1610
*8298 TAP_TAPCELL_ROW_20_2_2609
*8299 TAP_TAPCELL_ROW_20_3_2610
*8300 TAP_TAPCELL_ROW_20_3_2611
*8301 TAP_TAPCELL_ROW_210_2264
*8302 TAP_TAPCELL_ROW_210_2265
*8303 TAP_TAPCELL_ROW_210_2266
*8304 TAP_TAPCELL_ROW_210_2267
*8305 TAP_TAPCELL_ROW_210_2268
*8306 TAP_TAPCELL_ROW_210_2269
*8307 TAP_TAPCELL_ROW_210_2270
*8308 TAP_TAPCELL_ROW_210_2271
*8309 TAP_TAPCELL_ROW_210_2272
*8310 TAP_TAPCELL_ROW_210_2273
*8311 TAP_TAPCELL_ROW_210_2274
*8312 TAP_TAPCELL_ROW_210_2275
*8313 TAP_TAPCELL_ROW_210_2276
*8314 TAP_TAPCELL_ROW_210_2277
*8315 TAP_TAPCELL_ROW_210_2278
*8316 TAP_TAPCELL_ROW_210_2279
*8317 TAP_TAPCELL_ROW_210_2280
*8318 TAP_TAPCELL_ROW_210_2281
*8319 TAP_TAPCELL_ROW_210_2282
*8320 TAP_TAPCELL_ROW_210_2283
*8321 TAP_TAPCELL_ROW_210_2284
*8322 TAP_TAPCELL_ROW_210_2285
*8323 TAP_TAPCELL_ROW_210_2286
*8324 TAP_TAPCELL_ROW_210_2287
*8325 TAP_TAPCELL_ROW_210_2288
*8326 TAP_TAPCELL_ROW_210_2289
*8327 TAP_TAPCELL_ROW_210_2290
*8328 TAP_TAPCELL_ROW_210_2291
*8329 TAP_TAPCELL_ROW_211_2292
*8330 TAP_TAPCELL_ROW_211_2293
*8331 TAP_TAPCELL_ROW_211_2294
*8332 TAP_TAPCELL_ROW_211_2295
*8333 TAP_TAPCELL_ROW_211_2296
*8334 TAP_TAPCELL_ROW_211_2297
*8335 TAP_TAPCELL_ROW_211_2298
*8336 TAP_TAPCELL_ROW_211_2299
*8337 TAP_TAPCELL_ROW_211_2300
*8338 TAP_TAPCELL_ROW_211_2301
*8339 TAP_TAPCELL_ROW_211_2302
*8340 TAP_TAPCELL_ROW_211_2303
*8341 TAP_TAPCELL_ROW_211_2304
*8342 TAP_TAPCELL_ROW_211_2305
*8343 TAP_TAPCELL_ROW_211_2306
*8344 TAP_TAPCELL_ROW_211_2307
*8345 TAP_TAPCELL_ROW_211_2308
*8346 TAP_TAPCELL_ROW_211_2309
*8347 TAP_TAPCELL_ROW_211_2310
*8348 TAP_TAPCELL_ROW_211_2311
*8349 TAP_TAPCELL_ROW_211_2312
*8350 TAP_TAPCELL_ROW_211_2313
*8351 TAP_TAPCELL_ROW_211_2314
*8352 TAP_TAPCELL_ROW_211_2315
*8353 TAP_TAPCELL_ROW_211_2316
*8354 TAP_TAPCELL_ROW_211_2317
*8355 TAP_TAPCELL_ROW_211_2318
*8356 TAP_TAPCELL_ROW_212_2319
*8357 TAP_TAPCELL_ROW_212_2320
*8358 TAP_TAPCELL_ROW_212_2321
*8359 TAP_TAPCELL_ROW_212_2322
*8360 TAP_TAPCELL_ROW_212_2323
*8361 TAP_TAPCELL_ROW_212_2324
*8362 TAP_TAPCELL_ROW_212_2325
*8363 TAP_TAPCELL_ROW_212_2326
*8364 TAP_TAPCELL_ROW_212_2327
*8365 TAP_TAPCELL_ROW_212_2328
*8366 TAP_TAPCELL_ROW_212_2329
*8367 TAP_TAPCELL_ROW_212_2330
*8368 TAP_TAPCELL_ROW_212_2331
*8369 TAP_TAPCELL_ROW_212_2332
*8370 TAP_TAPCELL_ROW_212_2333
*8371 TAP_TAPCELL_ROW_212_2334
*8372 TAP_TAPCELL_ROW_212_2335
*8373 TAP_TAPCELL_ROW_212_2336
*8374 TAP_TAPCELL_ROW_212_2337
*8375 TAP_TAPCELL_ROW_212_2338
*8376 TAP_TAPCELL_ROW_212_2339
*8377 TAP_TAPCELL_ROW_212_2340
*8378 TAP_TAPCELL_ROW_212_2341
*8379 TAP_TAPCELL_ROW_212_2342
*8380 TAP_TAPCELL_ROW_212_2343
*8381 TAP_TAPCELL_ROW_212_2344
*8382 TAP_TAPCELL_ROW_212_2345
*8383 TAP_TAPCELL_ROW_212_2346
*8384 TAP_TAPCELL_ROW_213_2347
*8385 TAP_TAPCELL_ROW_213_2348
*8386 TAP_TAPCELL_ROW_213_2349
*8387 TAP_TAPCELL_ROW_213_2350
*8388 TAP_TAPCELL_ROW_213_2351
*8389 TAP_TAPCELL_ROW_213_2352
*8390 TAP_TAPCELL_ROW_213_2353
*8391 TAP_TAPCELL_ROW_213_2354
*8392 TAP_TAPCELL_ROW_213_2355
*8393 TAP_TAPCELL_ROW_213_2356
*8394 TAP_TAPCELL_ROW_213_2357
*8395 TAP_TAPCELL_ROW_213_2358
*8396 TAP_TAPCELL_ROW_213_2359
*8397 TAP_TAPCELL_ROW_213_2360
*8398 TAP_TAPCELL_ROW_213_2361
*8399 TAP_TAPCELL_ROW_213_2362
*8400 TAP_TAPCELL_ROW_213_2363
*8401 TAP_TAPCELL_ROW_213_2364
*8402 TAP_TAPCELL_ROW_213_2365
*8403 TAP_TAPCELL_ROW_213_2366
*8404 TAP_TAPCELL_ROW_213_2367
*8405 TAP_TAPCELL_ROW_213_2368
*8406 TAP_TAPCELL_ROW_213_2369
*8407 TAP_TAPCELL_ROW_213_2370
*8408 TAP_TAPCELL_ROW_213_2371
*8409 TAP_TAPCELL_ROW_213_2372
*8410 TAP_TAPCELL_ROW_213_2373
*8411 TAP_TAPCELL_ROW_214_2374
*8412 TAP_TAPCELL_ROW_214_2375
*8413 TAP_TAPCELL_ROW_214_2376
*8414 TAP_TAPCELL_ROW_214_2377
*8415 TAP_TAPCELL_ROW_214_2378
*8416 TAP_TAPCELL_ROW_214_2379
*8417 TAP_TAPCELL_ROW_214_2380
*8418 TAP_TAPCELL_ROW_214_2381
*8419 TAP_TAPCELL_ROW_214_2382
*8420 TAP_TAPCELL_ROW_214_2383
*8421 TAP_TAPCELL_ROW_214_2384
*8422 TAP_TAPCELL_ROW_214_2385
*8423 TAP_TAPCELL_ROW_214_2386
*8424 TAP_TAPCELL_ROW_214_2387
*8425 TAP_TAPCELL_ROW_214_2388
*8426 TAP_TAPCELL_ROW_214_2389
*8427 TAP_TAPCELL_ROW_214_2390
*8428 TAP_TAPCELL_ROW_214_2391
*8429 TAP_TAPCELL_ROW_214_2392
*8430 TAP_TAPCELL_ROW_214_2393
*8431 TAP_TAPCELL_ROW_214_2394
*8432 TAP_TAPCELL_ROW_214_2395
*8433 TAP_TAPCELL_ROW_214_2396
*8434 TAP_TAPCELL_ROW_214_2397
*8435 TAP_TAPCELL_ROW_214_2398
*8436 TAP_TAPCELL_ROW_214_2399
*8437 TAP_TAPCELL_ROW_214_2400
*8438 TAP_TAPCELL_ROW_214_2401
*8439 TAP_TAPCELL_ROW_215_2402
*8440 TAP_TAPCELL_ROW_215_2403
*8441 TAP_TAPCELL_ROW_215_2404
*8442 TAP_TAPCELL_ROW_215_2405
*8443 TAP_TAPCELL_ROW_215_2406
*8444 TAP_TAPCELL_ROW_215_2407
*8445 TAP_TAPCELL_ROW_215_2408
*8446 TAP_TAPCELL_ROW_215_2409
*8447 TAP_TAPCELL_ROW_215_2410
*8448 TAP_TAPCELL_ROW_215_2411
*8449 TAP_TAPCELL_ROW_215_2412
*8450 TAP_TAPCELL_ROW_215_2413
*8451 TAP_TAPCELL_ROW_215_2414
*8452 TAP_TAPCELL_ROW_215_2415
*8453 TAP_TAPCELL_ROW_215_2416
*8454 TAP_TAPCELL_ROW_215_2417
*8455 TAP_TAPCELL_ROW_215_2418
*8456 TAP_TAPCELL_ROW_215_2419
*8457 TAP_TAPCELL_ROW_215_2420
*8458 TAP_TAPCELL_ROW_215_2421
*8459 TAP_TAPCELL_ROW_215_2422
*8460 TAP_TAPCELL_ROW_215_2423
*8461 TAP_TAPCELL_ROW_215_2424
*8462 TAP_TAPCELL_ROW_215_2425
*8463 TAP_TAPCELL_ROW_215_2426
*8464 TAP_TAPCELL_ROW_215_2427
*8465 TAP_TAPCELL_ROW_215_2428
*8466 TAP_TAPCELL_ROW_216_2429
*8467 TAP_TAPCELL_ROW_216_2430
*8468 TAP_TAPCELL_ROW_216_2431
*8469 TAP_TAPCELL_ROW_216_2432
*8470 TAP_TAPCELL_ROW_216_2433
*8471 TAP_TAPCELL_ROW_216_2434
*8472 TAP_TAPCELL_ROW_216_2435
*8473 TAP_TAPCELL_ROW_216_2436
*8474 TAP_TAPCELL_ROW_216_2437
*8475 TAP_TAPCELL_ROW_216_2438
*8476 TAP_TAPCELL_ROW_216_2439
*8477 TAP_TAPCELL_ROW_216_2440
*8478 TAP_TAPCELL_ROW_216_2441
*8479 TAP_TAPCELL_ROW_216_2442
*8480 TAP_TAPCELL_ROW_216_2443
*8481 TAP_TAPCELL_ROW_216_2444
*8482 TAP_TAPCELL_ROW_216_2445
*8483 TAP_TAPCELL_ROW_216_2446
*8484 TAP_TAPCELL_ROW_216_2447
*8485 TAP_TAPCELL_ROW_216_2448
*8486 TAP_TAPCELL_ROW_216_2449
*8487 TAP_TAPCELL_ROW_216_2450
*8488 TAP_TAPCELL_ROW_216_2451
*8489 TAP_TAPCELL_ROW_216_2452
*8490 TAP_TAPCELL_ROW_216_2453
*8491 TAP_TAPCELL_ROW_216_2454
*8492 TAP_TAPCELL_ROW_216_2455
*8493 TAP_TAPCELL_ROW_216_2456
*8494 TAP_TAPCELL_ROW_217_2457
*8495 TAP_TAPCELL_ROW_217_2458
*8496 TAP_TAPCELL_ROW_217_2459
*8497 TAP_TAPCELL_ROW_217_2460
*8498 TAP_TAPCELL_ROW_217_2461
*8499 TAP_TAPCELL_ROW_217_2462
*8500 TAP_TAPCELL_ROW_217_2463
*8501 TAP_TAPCELL_ROW_217_2464
*8502 TAP_TAPCELL_ROW_217_2465
*8503 TAP_TAPCELL_ROW_217_2466
*8504 TAP_TAPCELL_ROW_217_2467
*8505 TAP_TAPCELL_ROW_217_2468
*8506 TAP_TAPCELL_ROW_217_2469
*8507 TAP_TAPCELL_ROW_217_2470
*8508 TAP_TAPCELL_ROW_217_2471
*8509 TAP_TAPCELL_ROW_217_2472
*8510 TAP_TAPCELL_ROW_217_2473
*8511 TAP_TAPCELL_ROW_217_2474
*8512 TAP_TAPCELL_ROW_217_2475
*8513 TAP_TAPCELL_ROW_217_2476
*8514 TAP_TAPCELL_ROW_217_2477
*8515 TAP_TAPCELL_ROW_217_2478
*8516 TAP_TAPCELL_ROW_217_2479
*8517 TAP_TAPCELL_ROW_217_2480
*8518 TAP_TAPCELL_ROW_217_2481
*8519 TAP_TAPCELL_ROW_217_2482
*8520 TAP_TAPCELL_ROW_217_2483
*8521 TAP_TAPCELL_ROW_218_2484
*8522 TAP_TAPCELL_ROW_218_2485
*8523 TAP_TAPCELL_ROW_218_2486
*8524 TAP_TAPCELL_ROW_218_2487
*8525 TAP_TAPCELL_ROW_218_2488
*8526 TAP_TAPCELL_ROW_218_2489
*8527 TAP_TAPCELL_ROW_218_2490
*8528 TAP_TAPCELL_ROW_218_2491
*8529 TAP_TAPCELL_ROW_218_2492
*8530 TAP_TAPCELL_ROW_218_2493
*8531 TAP_TAPCELL_ROW_218_2494
*8532 TAP_TAPCELL_ROW_218_2495
*8533 TAP_TAPCELL_ROW_218_2496
*8534 TAP_TAPCELL_ROW_218_2497
*8535 TAP_TAPCELL_ROW_218_2498
*8536 TAP_TAPCELL_ROW_218_2499
*8537 TAP_TAPCELL_ROW_218_2500
*8538 TAP_TAPCELL_ROW_218_2501
*8539 TAP_TAPCELL_ROW_218_2502
*8540 TAP_TAPCELL_ROW_218_2503
*8541 TAP_TAPCELL_ROW_218_2504
*8542 TAP_TAPCELL_ROW_218_2505
*8543 TAP_TAPCELL_ROW_218_2506
*8544 TAP_TAPCELL_ROW_218_2507
*8545 TAP_TAPCELL_ROW_218_2508
*8546 TAP_TAPCELL_ROW_218_2509
*8547 TAP_TAPCELL_ROW_218_2510
*8548 TAP_TAPCELL_ROW_218_2511
*8549 TAP_TAPCELL_ROW_219_2512
*8550 TAP_TAPCELL_ROW_219_2513
*8551 TAP_TAPCELL_ROW_219_2514
*8552 TAP_TAPCELL_ROW_219_2515
*8553 TAP_TAPCELL_ROW_219_2516
*8554 TAP_TAPCELL_ROW_219_2517
*8555 TAP_TAPCELL_ROW_219_2518
*8556 TAP_TAPCELL_ROW_219_2519
*8557 TAP_TAPCELL_ROW_219_2520
*8558 TAP_TAPCELL_ROW_219_2521
*8559 TAP_TAPCELL_ROW_219_2522
*8560 TAP_TAPCELL_ROW_219_2523
*8561 TAP_TAPCELL_ROW_219_2524
*8562 TAP_TAPCELL_ROW_219_2525
*8563 TAP_TAPCELL_ROW_219_2526
*8564 TAP_TAPCELL_ROW_219_2527
*8565 TAP_TAPCELL_ROW_219_2528
*8566 TAP_TAPCELL_ROW_219_2529
*8567 TAP_TAPCELL_ROW_219_2530
*8568 TAP_TAPCELL_ROW_219_2531
*8569 TAP_TAPCELL_ROW_219_2532
*8570 TAP_TAPCELL_ROW_219_2533
*8571 TAP_TAPCELL_ROW_219_2534
*8572 TAP_TAPCELL_ROW_219_2535
*8573 TAP_TAPCELL_ROW_219_2536
*8574 TAP_TAPCELL_ROW_219_2537
*8575 TAP_TAPCELL_ROW_219_2538
*8576 TAP_TAPCELL_ROW_21_1_1611
*8577 TAP_TAPCELL_ROW_21_3_2612
*8578 TAP_TAPCELL_ROW_220_2539
*8579 TAP_TAPCELL_ROW_220_2540
*8580 TAP_TAPCELL_ROW_220_2541
*8581 TAP_TAPCELL_ROW_220_2542
*8582 TAP_TAPCELL_ROW_220_2543
*8583 TAP_TAPCELL_ROW_220_2544
*8584 TAP_TAPCELL_ROW_220_2545
*8585 TAP_TAPCELL_ROW_220_2546
*8586 TAP_TAPCELL_ROW_220_2547
*8587 TAP_TAPCELL_ROW_220_2548
*8588 TAP_TAPCELL_ROW_220_2549
*8589 TAP_TAPCELL_ROW_220_2550
*8590 TAP_TAPCELL_ROW_220_2551
*8591 TAP_TAPCELL_ROW_220_2552
*8592 TAP_TAPCELL_ROW_220_2553
*8593 TAP_TAPCELL_ROW_220_2554
*8594 TAP_TAPCELL_ROW_220_2555
*8595 TAP_TAPCELL_ROW_220_2556
*8596 TAP_TAPCELL_ROW_220_2557
*8597 TAP_TAPCELL_ROW_220_2558
*8598 TAP_TAPCELL_ROW_220_2559
*8599 TAP_TAPCELL_ROW_220_2560
*8600 TAP_TAPCELL_ROW_220_2561
*8601 TAP_TAPCELL_ROW_220_2562
*8602 TAP_TAPCELL_ROW_220_2563
*8603 TAP_TAPCELL_ROW_220_2564
*8604 TAP_TAPCELL_ROW_220_2565
*8605 TAP_TAPCELL_ROW_220_2566
*8606 TAP_TAPCELL_ROW_220_2567
*8607 TAP_TAPCELL_ROW_220_2568
*8608 TAP_TAPCELL_ROW_220_2569
*8609 TAP_TAPCELL_ROW_220_2570
*8610 TAP_TAPCELL_ROW_220_2571
*8611 TAP_TAPCELL_ROW_220_2572
*8612 TAP_TAPCELL_ROW_220_2573
*8613 TAP_TAPCELL_ROW_220_2574
*8614 TAP_TAPCELL_ROW_220_2575
*8615 TAP_TAPCELL_ROW_220_2576
*8616 TAP_TAPCELL_ROW_220_2577
*8617 TAP_TAPCELL_ROW_220_2578
*8618 TAP_TAPCELL_ROW_220_2579
*8619 TAP_TAPCELL_ROW_220_2580
*8620 TAP_TAPCELL_ROW_220_2581
*8621 TAP_TAPCELL_ROW_220_2582
*8622 TAP_TAPCELL_ROW_220_2583
*8623 TAP_TAPCELL_ROW_220_2584
*8624 TAP_TAPCELL_ROW_220_2585
*8625 TAP_TAPCELL_ROW_220_2586
*8626 TAP_TAPCELL_ROW_220_2587
*8627 TAP_TAPCELL_ROW_220_2588
*8628 TAP_TAPCELL_ROW_220_2589
*8629 TAP_TAPCELL_ROW_220_2590
*8630 TAP_TAPCELL_ROW_220_2591
*8631 TAP_TAPCELL_ROW_220_2592
*8632 TAP_TAPCELL_ROW_220_2593
*8633 TAP_TAPCELL_ROW_220_2594
*8634 TAP_TAPCELL_ROW_22_1_1612
*8635 TAP_TAPCELL_ROW_22_1_1613
*8636 TAP_TAPCELL_ROW_22_2_2613
*8637 TAP_TAPCELL_ROW_22_3_2614
*8638 TAP_TAPCELL_ROW_22_3_2615
*8639 TAP_TAPCELL_ROW_23_1_1614
*8640 TAP_TAPCELL_ROW_23_3_2616
*8641 TAP_TAPCELL_ROW_24_1_1615
*8642 TAP_TAPCELL_ROW_24_1_1616
*8643 TAP_TAPCELL_ROW_24_2_2617
*8644 TAP_TAPCELL_ROW_24_3_2618
*8645 TAP_TAPCELL_ROW_24_3_2619
*8646 TAP_TAPCELL_ROW_25_1_1617
*8647 TAP_TAPCELL_ROW_25_3_2620
*8648 TAP_TAPCELL_ROW_26_1_1618
*8649 TAP_TAPCELL_ROW_26_1_1619
*8650 TAP_TAPCELL_ROW_26_2_2621
*8651 TAP_TAPCELL_ROW_26_3_2622
*8652 TAP_TAPCELL_ROW_26_3_2623
*8653 TAP_TAPCELL_ROW_27_1_1620
*8654 TAP_TAPCELL_ROW_27_3_2624
*8655 TAP_TAPCELL_ROW_28_1_1621
*8656 TAP_TAPCELL_ROW_28_1_1622
*8657 TAP_TAPCELL_ROW_28_2_2625
*8658 TAP_TAPCELL_ROW_28_3_2626
*8659 TAP_TAPCELL_ROW_28_3_2627
*8660 TAP_TAPCELL_ROW_29_1_1623
*8661 TAP_TAPCELL_ROW_29_3_2628
*8662 TAP_TAPCELL_ROW_2_1269
*8663 TAP_TAPCELL_ROW_2_1270
*8664 TAP_TAPCELL_ROW_2_1271
*8665 TAP_TAPCELL_ROW_2_1272
*8666 TAP_TAPCELL_ROW_2_1273
*8667 TAP_TAPCELL_ROW_2_1274
*8668 TAP_TAPCELL_ROW_2_1275
*8669 TAP_TAPCELL_ROW_2_1276
*8670 TAP_TAPCELL_ROW_2_1277
*8671 TAP_TAPCELL_ROW_2_1278
*8672 TAP_TAPCELL_ROW_2_1279
*8673 TAP_TAPCELL_ROW_2_1280
*8674 TAP_TAPCELL_ROW_2_1281
*8675 TAP_TAPCELL_ROW_2_1282
*8676 TAP_TAPCELL_ROW_2_1283
*8677 TAP_TAPCELL_ROW_2_1284
*8678 TAP_TAPCELL_ROW_2_1285
*8679 TAP_TAPCELL_ROW_2_1286
*8680 TAP_TAPCELL_ROW_2_1287
*8681 TAP_TAPCELL_ROW_2_1288
*8682 TAP_TAPCELL_ROW_2_1289
*8683 TAP_TAPCELL_ROW_2_1290
*8684 TAP_TAPCELL_ROW_2_1291
*8685 TAP_TAPCELL_ROW_2_1292
*8686 TAP_TAPCELL_ROW_2_1293
*8687 TAP_TAPCELL_ROW_2_1294
*8688 TAP_TAPCELL_ROW_2_1295
*8689 TAP_TAPCELL_ROW_2_1296
*8690 TAP_TAPCELL_ROW_30_1_1624
*8691 TAP_TAPCELL_ROW_30_1_1625
*8692 TAP_TAPCELL_ROW_30_2_2629
*8693 TAP_TAPCELL_ROW_30_3_2630
*8694 TAP_TAPCELL_ROW_30_3_2631
*8695 TAP_TAPCELL_ROW_31_1_1626
*8696 TAP_TAPCELL_ROW_31_3_2632
*8697 TAP_TAPCELL_ROW_32_1_1627
*8698 TAP_TAPCELL_ROW_32_1_1628
*8699 TAP_TAPCELL_ROW_32_2_2633
*8700 TAP_TAPCELL_ROW_32_3_2634
*8701 TAP_TAPCELL_ROW_32_3_2635
*8702 TAP_TAPCELL_ROW_33_1_1629
*8703 TAP_TAPCELL_ROW_33_3_2636
*8704 TAP_TAPCELL_ROW_34_1_1630
*8705 TAP_TAPCELL_ROW_34_1_1631
*8706 TAP_TAPCELL_ROW_34_2_2637
*8707 TAP_TAPCELL_ROW_34_3_2638
*8708 TAP_TAPCELL_ROW_34_3_2639
*8709 TAP_TAPCELL_ROW_35_1_1632
*8710 TAP_TAPCELL_ROW_35_3_2640
*8711 TAP_TAPCELL_ROW_36_1_1633
*8712 TAP_TAPCELL_ROW_36_1_1634
*8713 TAP_TAPCELL_ROW_36_2_2641
*8714 TAP_TAPCELL_ROW_36_3_2642
*8715 TAP_TAPCELL_ROW_36_3_2643
*8716 TAP_TAPCELL_ROW_37_1_1635
*8717 TAP_TAPCELL_ROW_37_3_2644
*8718 TAP_TAPCELL_ROW_38_1_1636
*8719 TAP_TAPCELL_ROW_38_1_1637
*8720 TAP_TAPCELL_ROW_38_2_2645
*8721 TAP_TAPCELL_ROW_38_3_2646
*8722 TAP_TAPCELL_ROW_38_3_2647
*8723 TAP_TAPCELL_ROW_39_1_1638
*8724 TAP_TAPCELL_ROW_39_3_2648
*8725 TAP_TAPCELL_ROW_3_1297
*8726 TAP_TAPCELL_ROW_3_1298
*8727 TAP_TAPCELL_ROW_3_1299
*8728 TAP_TAPCELL_ROW_3_1300
*8729 TAP_TAPCELL_ROW_3_1301
*8730 TAP_TAPCELL_ROW_3_1302
*8731 TAP_TAPCELL_ROW_3_1303
*8732 TAP_TAPCELL_ROW_3_1304
*8733 TAP_TAPCELL_ROW_3_1305
*8734 TAP_TAPCELL_ROW_3_1306
*8735 TAP_TAPCELL_ROW_3_1307
*8736 TAP_TAPCELL_ROW_3_1308
*8737 TAP_TAPCELL_ROW_3_1309
*8738 TAP_TAPCELL_ROW_3_1310
*8739 TAP_TAPCELL_ROW_3_1311
*8740 TAP_TAPCELL_ROW_3_1312
*8741 TAP_TAPCELL_ROW_3_1313
*8742 TAP_TAPCELL_ROW_3_1314
*8743 TAP_TAPCELL_ROW_3_1315
*8744 TAP_TAPCELL_ROW_3_1316
*8745 TAP_TAPCELL_ROW_3_1317
*8746 TAP_TAPCELL_ROW_3_1318
*8747 TAP_TAPCELL_ROW_3_1319
*8748 TAP_TAPCELL_ROW_3_1320
*8749 TAP_TAPCELL_ROW_3_1321
*8750 TAP_TAPCELL_ROW_3_1322
*8751 TAP_TAPCELL_ROW_3_1323
*8752 TAP_TAPCELL_ROW_40_1_1639
*8753 TAP_TAPCELL_ROW_40_1_1640
*8754 TAP_TAPCELL_ROW_40_2_2649
*8755 TAP_TAPCELL_ROW_40_3_2650
*8756 TAP_TAPCELL_ROW_40_3_2651
*8757 TAP_TAPCELL_ROW_41_1_1641
*8758 TAP_TAPCELL_ROW_41_3_2652
*8759 TAP_TAPCELL_ROW_42_1_1642
*8760 TAP_TAPCELL_ROW_42_1_1643
*8761 TAP_TAPCELL_ROW_42_2_2653
*8762 TAP_TAPCELL_ROW_42_3_2654
*8763 TAP_TAPCELL_ROW_42_3_2655
*8764 TAP_TAPCELL_ROW_43_1_1644
*8765 TAP_TAPCELL_ROW_43_3_2656
*8766 TAP_TAPCELL_ROW_44_1_1645
*8767 TAP_TAPCELL_ROW_44_1_1646
*8768 TAP_TAPCELL_ROW_44_2_2657
*8769 TAP_TAPCELL_ROW_44_3_2658
*8770 TAP_TAPCELL_ROW_44_3_2659
*8771 TAP_TAPCELL_ROW_45_1_1647
*8772 TAP_TAPCELL_ROW_45_3_2660
*8773 TAP_TAPCELL_ROW_46_1_1648
*8774 TAP_TAPCELL_ROW_46_1_1649
*8775 TAP_TAPCELL_ROW_46_2_2661
*8776 TAP_TAPCELL_ROW_46_3_2662
*8777 TAP_TAPCELL_ROW_46_3_2663
*8778 TAP_TAPCELL_ROW_47_1_1650
*8779 TAP_TAPCELL_ROW_47_3_2664
*8780 TAP_TAPCELL_ROW_48_1_1651
*8781 TAP_TAPCELL_ROW_48_1_1652
*8782 TAP_TAPCELL_ROW_48_2_2665
*8783 TAP_TAPCELL_ROW_48_3_2666
*8784 TAP_TAPCELL_ROW_48_3_2667
*8785 TAP_TAPCELL_ROW_49_1_1653
*8786 TAP_TAPCELL_ROW_49_3_2668
*8787 TAP_TAPCELL_ROW_4_1324
*8788 TAP_TAPCELL_ROW_4_1325
*8789 TAP_TAPCELL_ROW_4_1326
*8790 TAP_TAPCELL_ROW_4_1327
*8791 TAP_TAPCELL_ROW_4_1328
*8792 TAP_TAPCELL_ROW_4_1329
*8793 TAP_TAPCELL_ROW_4_1330
*8794 TAP_TAPCELL_ROW_4_1331
*8795 TAP_TAPCELL_ROW_4_1332
*8796 TAP_TAPCELL_ROW_4_1333
*8797 TAP_TAPCELL_ROW_4_1334
*8798 TAP_TAPCELL_ROW_4_1335
*8799 TAP_TAPCELL_ROW_4_1336
*8800 TAP_TAPCELL_ROW_4_1337
*8801 TAP_TAPCELL_ROW_4_1338
*8802 TAP_TAPCELL_ROW_4_1339
*8803 TAP_TAPCELL_ROW_4_1340
*8804 TAP_TAPCELL_ROW_4_1341
*8805 TAP_TAPCELL_ROW_4_1342
*8806 TAP_TAPCELL_ROW_4_1343
*8807 TAP_TAPCELL_ROW_4_1344
*8808 TAP_TAPCELL_ROW_4_1345
*8809 TAP_TAPCELL_ROW_4_1346
*8810 TAP_TAPCELL_ROW_4_1347
*8811 TAP_TAPCELL_ROW_4_1348
*8812 TAP_TAPCELL_ROW_4_1349
*8813 TAP_TAPCELL_ROW_4_1350
*8814 TAP_TAPCELL_ROW_4_1351
*8815 TAP_TAPCELL_ROW_50_1_1654
*8816 TAP_TAPCELL_ROW_50_1_1655
*8817 TAP_TAPCELL_ROW_50_2_2669
*8818 TAP_TAPCELL_ROW_50_3_2670
*8819 TAP_TAPCELL_ROW_50_3_2671
*8820 TAP_TAPCELL_ROW_51_1_1656
*8821 TAP_TAPCELL_ROW_51_3_2672
*8822 TAP_TAPCELL_ROW_52_1_1657
*8823 TAP_TAPCELL_ROW_52_1_1658
*8824 TAP_TAPCELL_ROW_52_2_2673
*8825 TAP_TAPCELL_ROW_52_3_2674
*8826 TAP_TAPCELL_ROW_52_3_2675
*8827 TAP_TAPCELL_ROW_53_1_1659
*8828 TAP_TAPCELL_ROW_53_3_2676
*8829 TAP_TAPCELL_ROW_54_1_1660
*8830 TAP_TAPCELL_ROW_54_1_1661
*8831 TAP_TAPCELL_ROW_54_2_2677
*8832 TAP_TAPCELL_ROW_54_3_2678
*8833 TAP_TAPCELL_ROW_54_3_2679
*8834 TAP_TAPCELL_ROW_55_1_1662
*8835 TAP_TAPCELL_ROW_55_3_2680
*8836 TAP_TAPCELL_ROW_56_1_1663
*8837 TAP_TAPCELL_ROW_56_1_1664
*8838 TAP_TAPCELL_ROW_56_2_2681
*8839 TAP_TAPCELL_ROW_56_3_2682
*8840 TAP_TAPCELL_ROW_56_3_2683
*8841 TAP_TAPCELL_ROW_57_1_1665
*8842 TAP_TAPCELL_ROW_57_3_2684
*8843 TAP_TAPCELL_ROW_58_1_1666
*8844 TAP_TAPCELL_ROW_58_1_1667
*8845 TAP_TAPCELL_ROW_58_2_2685
*8846 TAP_TAPCELL_ROW_58_3_2686
*8847 TAP_TAPCELL_ROW_58_3_2687
*8848 TAP_TAPCELL_ROW_59_1_1668
*8849 TAP_TAPCELL_ROW_59_3_2688
*8850 TAP_TAPCELL_ROW_5_1352
*8851 TAP_TAPCELL_ROW_5_1353
*8852 TAP_TAPCELL_ROW_5_1354
*8853 TAP_TAPCELL_ROW_5_1355
*8854 TAP_TAPCELL_ROW_5_1356
*8855 TAP_TAPCELL_ROW_5_1357
*8856 TAP_TAPCELL_ROW_5_1358
*8857 TAP_TAPCELL_ROW_5_1359
*8858 TAP_TAPCELL_ROW_5_1360
*8859 TAP_TAPCELL_ROW_5_1361
*8860 TAP_TAPCELL_ROW_5_1362
*8861 TAP_TAPCELL_ROW_5_1363
*8862 TAP_TAPCELL_ROW_5_1364
*8863 TAP_TAPCELL_ROW_5_1365
*8864 TAP_TAPCELL_ROW_5_1366
*8865 TAP_TAPCELL_ROW_5_1367
*8866 TAP_TAPCELL_ROW_5_1368
*8867 TAP_TAPCELL_ROW_5_1369
*8868 TAP_TAPCELL_ROW_5_1370
*8869 TAP_TAPCELL_ROW_5_1371
*8870 TAP_TAPCELL_ROW_5_1372
*8871 TAP_TAPCELL_ROW_5_1373
*8872 TAP_TAPCELL_ROW_5_1374
*8873 TAP_TAPCELL_ROW_5_1375
*8874 TAP_TAPCELL_ROW_5_1376
*8875 TAP_TAPCELL_ROW_5_1377
*8876 TAP_TAPCELL_ROW_5_1378
*8877 TAP_TAPCELL_ROW_60_1_1669
*8878 TAP_TAPCELL_ROW_60_1_1670
*8879 TAP_TAPCELL_ROW_60_2_2689
*8880 TAP_TAPCELL_ROW_60_3_2690
*8881 TAP_TAPCELL_ROW_60_3_2691
*8882 TAP_TAPCELL_ROW_61_1_1671
*8883 TAP_TAPCELL_ROW_61_3_2692
*8884 TAP_TAPCELL_ROW_62_1_1672
*8885 TAP_TAPCELL_ROW_62_1_1673
*8886 TAP_TAPCELL_ROW_62_2_2693
*8887 TAP_TAPCELL_ROW_62_3_2694
*8888 TAP_TAPCELL_ROW_62_3_2695
*8889 TAP_TAPCELL_ROW_63_1_1674
*8890 TAP_TAPCELL_ROW_63_3_2696
*8891 TAP_TAPCELL_ROW_64_1_1675
*8892 TAP_TAPCELL_ROW_64_1_1676
*8893 TAP_TAPCELL_ROW_64_2_2697
*8894 TAP_TAPCELL_ROW_64_3_2698
*8895 TAP_TAPCELL_ROW_64_3_2699
*8896 TAP_TAPCELL_ROW_65_1_1677
*8897 TAP_TAPCELL_ROW_65_3_2700
*8898 TAP_TAPCELL_ROW_66_1_1678
*8899 TAP_TAPCELL_ROW_66_1_1679
*8900 TAP_TAPCELL_ROW_66_2_2701
*8901 TAP_TAPCELL_ROW_66_3_2702
*8902 TAP_TAPCELL_ROW_66_3_2703
*8903 TAP_TAPCELL_ROW_67_1_1680
*8904 TAP_TAPCELL_ROW_67_3_2704
*8905 TAP_TAPCELL_ROW_68_1_1681
*8906 TAP_TAPCELL_ROW_68_1_1682
*8907 TAP_TAPCELL_ROW_68_2_2705
*8908 TAP_TAPCELL_ROW_68_3_2706
*8909 TAP_TAPCELL_ROW_68_3_2707
*8910 TAP_TAPCELL_ROW_69_1_1683
*8911 TAP_TAPCELL_ROW_69_3_2708
*8912 TAP_TAPCELL_ROW_6_1379
*8913 TAP_TAPCELL_ROW_6_1380
*8914 TAP_TAPCELL_ROW_6_1381
*8915 TAP_TAPCELL_ROW_6_1382
*8916 TAP_TAPCELL_ROW_6_1383
*8917 TAP_TAPCELL_ROW_6_1384
*8918 TAP_TAPCELL_ROW_6_1385
*8919 TAP_TAPCELL_ROW_6_1386
*8920 TAP_TAPCELL_ROW_6_1387
*8921 TAP_TAPCELL_ROW_6_1388
*8922 TAP_TAPCELL_ROW_6_1389
*8923 TAP_TAPCELL_ROW_6_1390
*8924 TAP_TAPCELL_ROW_6_1391
*8925 TAP_TAPCELL_ROW_6_1392
*8926 TAP_TAPCELL_ROW_6_1393
*8927 TAP_TAPCELL_ROW_6_1394
*8928 TAP_TAPCELL_ROW_6_1395
*8929 TAP_TAPCELL_ROW_6_1396
*8930 TAP_TAPCELL_ROW_6_1397
*8931 TAP_TAPCELL_ROW_6_1398
*8932 TAP_TAPCELL_ROW_6_1399
*8933 TAP_TAPCELL_ROW_6_1400
*8934 TAP_TAPCELL_ROW_6_1401
*8935 TAP_TAPCELL_ROW_6_1402
*8936 TAP_TAPCELL_ROW_6_1403
*8937 TAP_TAPCELL_ROW_6_1404
*8938 TAP_TAPCELL_ROW_6_1405
*8939 TAP_TAPCELL_ROW_6_1406
*8940 TAP_TAPCELL_ROW_70_1_1684
*8941 TAP_TAPCELL_ROW_70_1_1685
*8942 TAP_TAPCELL_ROW_70_2_2709
*8943 TAP_TAPCELL_ROW_70_3_2710
*8944 TAP_TAPCELL_ROW_70_3_2711
*8945 TAP_TAPCELL_ROW_71_1_1686
*8946 TAP_TAPCELL_ROW_71_3_2712
*8947 TAP_TAPCELL_ROW_72_1_1687
*8948 TAP_TAPCELL_ROW_72_1_1688
*8949 TAP_TAPCELL_ROW_72_2_2713
*8950 TAP_TAPCELL_ROW_72_3_2714
*8951 TAP_TAPCELL_ROW_72_3_2715
*8952 TAP_TAPCELL_ROW_73_1_1689
*8953 TAP_TAPCELL_ROW_73_3_2716
*8954 TAP_TAPCELL_ROW_74_1_1690
*8955 TAP_TAPCELL_ROW_74_1_1691
*8956 TAP_TAPCELL_ROW_74_2_2717
*8957 TAP_TAPCELL_ROW_74_3_2718
*8958 TAP_TAPCELL_ROW_74_3_2719
*8959 TAP_TAPCELL_ROW_75_1_1692
*8960 TAP_TAPCELL_ROW_75_3_2720
*8961 TAP_TAPCELL_ROW_76_1_1693
*8962 TAP_TAPCELL_ROW_76_1_1694
*8963 TAP_TAPCELL_ROW_76_2_2721
*8964 TAP_TAPCELL_ROW_76_3_2722
*8965 TAP_TAPCELL_ROW_76_3_2723
*8966 TAP_TAPCELL_ROW_77_1_1695
*8967 TAP_TAPCELL_ROW_77_3_2724
*8968 TAP_TAPCELL_ROW_78_1_1696
*8969 TAP_TAPCELL_ROW_78_1_1697
*8970 TAP_TAPCELL_ROW_78_2_2725
*8971 TAP_TAPCELL_ROW_78_3_2726
*8972 TAP_TAPCELL_ROW_78_3_2727
*8973 TAP_TAPCELL_ROW_79_1_1698
*8974 TAP_TAPCELL_ROW_79_3_2728
*8975 TAP_TAPCELL_ROW_7_1407
*8976 TAP_TAPCELL_ROW_7_1408
*8977 TAP_TAPCELL_ROW_7_1409
*8978 TAP_TAPCELL_ROW_7_1410
*8979 TAP_TAPCELL_ROW_7_1411
*8980 TAP_TAPCELL_ROW_7_1412
*8981 TAP_TAPCELL_ROW_7_1413
*8982 TAP_TAPCELL_ROW_7_1414
*8983 TAP_TAPCELL_ROW_7_1415
*8984 TAP_TAPCELL_ROW_7_1416
*8985 TAP_TAPCELL_ROW_7_1417
*8986 TAP_TAPCELL_ROW_7_1418
*8987 TAP_TAPCELL_ROW_7_1419
*8988 TAP_TAPCELL_ROW_7_1420
*8989 TAP_TAPCELL_ROW_7_1421
*8990 TAP_TAPCELL_ROW_7_1422
*8991 TAP_TAPCELL_ROW_7_1423
*8992 TAP_TAPCELL_ROW_7_1424
*8993 TAP_TAPCELL_ROW_7_1425
*8994 TAP_TAPCELL_ROW_7_1426
*8995 TAP_TAPCELL_ROW_7_1427
*8996 TAP_TAPCELL_ROW_7_1428
*8997 TAP_TAPCELL_ROW_7_1429
*8998 TAP_TAPCELL_ROW_7_1430
*8999 TAP_TAPCELL_ROW_7_1431
*9000 TAP_TAPCELL_ROW_7_1432
*9001 TAP_TAPCELL_ROW_7_1433
*9002 TAP_TAPCELL_ROW_80_1_1699
*9003 TAP_TAPCELL_ROW_80_1_1700
*9004 TAP_TAPCELL_ROW_80_2_2729
*9005 TAP_TAPCELL_ROW_80_3_2730
*9006 TAP_TAPCELL_ROW_80_3_2731
*9007 TAP_TAPCELL_ROW_81_1_1701
*9008 TAP_TAPCELL_ROW_81_3_2732
*9009 TAP_TAPCELL_ROW_82_1_1702
*9010 TAP_TAPCELL_ROW_82_1_1703
*9011 TAP_TAPCELL_ROW_82_2_2733
*9012 TAP_TAPCELL_ROW_82_3_2734
*9013 TAP_TAPCELL_ROW_82_3_2735
*9014 TAP_TAPCELL_ROW_83_1_1704
*9015 TAP_TAPCELL_ROW_83_3_2736
*9016 TAP_TAPCELL_ROW_84_1_1705
*9017 TAP_TAPCELL_ROW_84_1_1706
*9018 TAP_TAPCELL_ROW_84_2_2737
*9019 TAP_TAPCELL_ROW_84_3_2738
*9020 TAP_TAPCELL_ROW_84_3_2739
*9021 TAP_TAPCELL_ROW_85_1_1707
*9022 TAP_TAPCELL_ROW_85_3_2740
*9023 TAP_TAPCELL_ROW_86_1_1708
*9024 TAP_TAPCELL_ROW_86_1_1709
*9025 TAP_TAPCELL_ROW_86_2_2741
*9026 TAP_TAPCELL_ROW_86_3_2742
*9027 TAP_TAPCELL_ROW_86_3_2743
*9028 TAP_TAPCELL_ROW_87_1_1710
*9029 TAP_TAPCELL_ROW_87_3_2744
*9030 TAP_TAPCELL_ROW_88_1_1711
*9031 TAP_TAPCELL_ROW_88_1_1712
*9032 TAP_TAPCELL_ROW_88_2_2745
*9033 TAP_TAPCELL_ROW_88_3_2746
*9034 TAP_TAPCELL_ROW_88_3_2747
*9035 TAP_TAPCELL_ROW_89_1_1713
*9036 TAP_TAPCELL_ROW_89_3_2748
*9037 TAP_TAPCELL_ROW_8_1434
*9038 TAP_TAPCELL_ROW_8_1435
*9039 TAP_TAPCELL_ROW_8_1436
*9040 TAP_TAPCELL_ROW_8_1437
*9041 TAP_TAPCELL_ROW_8_1438
*9042 TAP_TAPCELL_ROW_8_1439
*9043 TAP_TAPCELL_ROW_8_1440
*9044 TAP_TAPCELL_ROW_8_1441
*9045 TAP_TAPCELL_ROW_8_1442
*9046 TAP_TAPCELL_ROW_8_1443
*9047 TAP_TAPCELL_ROW_8_1444
*9048 TAP_TAPCELL_ROW_8_1445
*9049 TAP_TAPCELL_ROW_8_1446
*9050 TAP_TAPCELL_ROW_8_1447
*9051 TAP_TAPCELL_ROW_8_1448
*9052 TAP_TAPCELL_ROW_8_1449
*9053 TAP_TAPCELL_ROW_8_1450
*9054 TAP_TAPCELL_ROW_8_1451
*9055 TAP_TAPCELL_ROW_8_1452
*9056 TAP_TAPCELL_ROW_8_1453
*9057 TAP_TAPCELL_ROW_8_1454
*9058 TAP_TAPCELL_ROW_8_1455
*9059 TAP_TAPCELL_ROW_8_1456
*9060 TAP_TAPCELL_ROW_8_1457
*9061 TAP_TAPCELL_ROW_8_1458
*9062 TAP_TAPCELL_ROW_8_1459
*9063 TAP_TAPCELL_ROW_8_1460
*9064 TAP_TAPCELL_ROW_8_1461
*9065 TAP_TAPCELL_ROW_90_1_1714
*9066 TAP_TAPCELL_ROW_90_1_1715
*9067 TAP_TAPCELL_ROW_90_2_2749
*9068 TAP_TAPCELL_ROW_90_3_2750
*9069 TAP_TAPCELL_ROW_90_3_2751
*9070 TAP_TAPCELL_ROW_91_1_1716
*9071 TAP_TAPCELL_ROW_91_3_2752
*9072 TAP_TAPCELL_ROW_92_1_1717
*9073 TAP_TAPCELL_ROW_92_1_1718
*9074 TAP_TAPCELL_ROW_92_2_2753
*9075 TAP_TAPCELL_ROW_92_3_2754
*9076 TAP_TAPCELL_ROW_92_3_2755
*9077 TAP_TAPCELL_ROW_93_1_1719
*9078 TAP_TAPCELL_ROW_93_3_2756
*9079 TAP_TAPCELL_ROW_94_1_1720
*9080 TAP_TAPCELL_ROW_94_1_1721
*9081 TAP_TAPCELL_ROW_94_2_2757
*9082 TAP_TAPCELL_ROW_94_3_2758
*9083 TAP_TAPCELL_ROW_94_3_2759
*9084 TAP_TAPCELL_ROW_95_1_1722
*9085 TAP_TAPCELL_ROW_95_3_2760
*9086 TAP_TAPCELL_ROW_96_1_1723
*9087 TAP_TAPCELL_ROW_96_1_1724
*9088 TAP_TAPCELL_ROW_96_2_2761
*9089 TAP_TAPCELL_ROW_96_3_2762
*9090 TAP_TAPCELL_ROW_96_3_2763
*9091 TAP_TAPCELL_ROW_97_1_1725
*9092 TAP_TAPCELL_ROW_97_3_2764
*9093 TAP_TAPCELL_ROW_98_1_1726
*9094 TAP_TAPCELL_ROW_98_1_1727
*9095 TAP_TAPCELL_ROW_98_2_2765
*9096 TAP_TAPCELL_ROW_98_3_2766
*9097 TAP_TAPCELL_ROW_98_3_2767
*9098 TAP_TAPCELL_ROW_99_1_1728
*9099 TAP_TAPCELL_ROW_99_3_2768
*9100 TAP_TAPCELL_ROW_9_1462
*9101 TAP_TAPCELL_ROW_9_1463
*9102 TAP_TAPCELL_ROW_9_1464
*9103 TAP_TAPCELL_ROW_9_1465
*9104 TAP_TAPCELL_ROW_9_1466
*9105 TAP_TAPCELL_ROW_9_1467
*9106 TAP_TAPCELL_ROW_9_1468
*9107 TAP_TAPCELL_ROW_9_1469
*9108 TAP_TAPCELL_ROW_9_1470
*9109 TAP_TAPCELL_ROW_9_1471
*9110 TAP_TAPCELL_ROW_9_1472
*9111 TAP_TAPCELL_ROW_9_1473
*9112 TAP_TAPCELL_ROW_9_1474
*9113 TAP_TAPCELL_ROW_9_1475
*9114 TAP_TAPCELL_ROW_9_1476
*9115 TAP_TAPCELL_ROW_9_1477
*9116 TAP_TAPCELL_ROW_9_1478
*9117 TAP_TAPCELL_ROW_9_1479
*9118 TAP_TAPCELL_ROW_9_1480
*9119 TAP_TAPCELL_ROW_9_1481
*9120 TAP_TAPCELL_ROW_9_1482
*9121 TAP_TAPCELL_ROW_9_1483
*9122 TAP_TAPCELL_ROW_9_1484
*9123 TAP_TAPCELL_ROW_9_1485
*9124 TAP_TAPCELL_ROW_9_1486
*9125 TAP_TAPCELL_ROW_9_1487
*9126 TAP_TAPCELL_ROW_9_1488
*9127 _176_
*9128 _177_
*9129 _178_
*9130 _179_
*9131 _180_
*9132 _181_
*9133 _182_
*9134 _183_
*9135 _184_
*9136 _185_
*9137 _186_
*9138 _187_
*9139 _188_
*9140 _189_
*9141 _190_
*9142 _191_
*9143 _192_
*9144 _193_
*9145 _194_
*9146 _195_
*9147 _196_
*9148 _197_
*9149 _198_
*9150 _199_
*9151 _200_
*9152 _201_
*9153 _202_
*9154 _203_
*9155 _204_
*9156 _205_
*9157 _206_
*9158 _207_
*9159 _208_
*9160 _209_
*9161 _210_
*9162 _211_
*9163 _212_
*9164 _213_
*9165 _214_
*9166 _215_
*9167 _216_
*9168 _217_
*9169 _218_
*9170 _219_
*9171 _220_
*9172 _221_
*9173 _222_
*9174 _223_
*9175 _224_
*9176 _225_
*9177 _226_
*9178 _227_
*9179 _228_
*9180 _229_
*9181 _230_
*9182 _231_
*9183 _232_
*9184 _233_
*9185 _234_
*9186 _235_
*9187 _236_
*9188 _237_
*9189 _238_
*9190 _239_
*9191 _240_
*9192 _241_
*9193 _242_
*9194 _243_
*9195 _244_
*9196 _245_
*9197 _246_
*9198 _247_
*9199 _248_
*9200 _249_
*9201 _250_
*9202 _251_
*9203 _252_
*9204 _253_
*9205 _254_
*9206 _255_
*9207 _256_
*9208 _257_
*9209 _258_
*9210 _259_
*9211 _260_
*9212 _261_
*9213 _262_
*9214 _263_
*9215 _264_
*9216 _265_
*9217 _266_
*9218 _267_
*9219 _268_
*9220 _269_
*9221 _270_
*9222 _271_
*9223 _272_
*9224 _273_
*9225 _274_
*9226 _275_
*9227 _276_
*9228 _277_
*9229 _278_
*9230 _279_
*9231 _280_
*9232 _281_
*9233 _282_
*9234 _283_
*9235 _284_
*9236 _285_
*9237 _286_
*9238 _287_
*9239 _288_
*9240 _289_
*9241 _290_
*9242 _291_
*9243 _292_
*9244 _293_
*9245 _294_
*9246 _295_
*9247 _296_
*9248 _297_
*9249 _298_
*9250 _299_
*9251 _300_
*9252 _301_
*9253 _302_
*9254 _303_
*9255 _304_
*9256 _305_
*9257 _306_
*9258 _307_
*9259 _308_
*9260 _309_
*9261 _310_
*9262 _311_
*9263 _312_
*9264 _313_
*9265 _314_
*9266 _315_
*9267 _316_
*9268 _317_
*9269 _318_
*9270 _319_
*9271 _320_
*9272 _321_
*9273 _322_
*9274 _323_
*9275 _324_
*9276 _325_
*9277 _326_
*9278 _327_
*9279 _328_
*9280 _329_
*9281 _330_
*9282 _331_
*9283 _332_
*9284 _333_
*9285 _334_
*9286 _335_
*9287 _336_
*9288 _337_
*9289 _338_
*9290 _339_
*9291 _340_
*9292 _341_
*9293 _342_
*9294 _343_
*9295 _344_
*9296 _345_
*9297 _346_
*9298 _347_
*9299 _348_
*9300 _349_
*9301 _350_
*9302 _351_
*9303 _352_
*9304 _353_
*9305 _354_
*9306 _355_
*9307 _356_
*9308 _357_
*9309 _358_
*9310 _359_
*9311 _360_
*9312 _361_
*9313 _362_
*9314 _363_
*9315 _364_
*9316 _365_
*9317 _366_
*9318 _367_
*9319 _368_
*9320 _369_
*9321 _370_
*9322 _371_
*9323 _372_
*9324 _373_
*9325 _374_
*9326 _375_
*9327 _376_
*9328 _377_
*9329 _378_
*9330 _379_
*9331 _380_
*9332 _381_
*9333 _382_
*9334 _383_
*9335 _384_
*9336 _385_
*9337 _386_
*9338 _387_
*9339 _388_
*9340 _389_
*9341 _390_
*9342 _391_
*9343 _392_
*9344 _393_
*9345 _394_
*9346 _395_
*9347 _396_
*9348 _397_
*9349 _398_
*9350 _399_
*9351 _400_
*9352 _401_
*9353 _402_
*9354 _403_
*9355 _404_
*9356 _405_
*9357 _406_
*9358 _407_
*9359 _408_
*9360 _409_
*9361 _410_
*9362 _411_
*9363 _412_
*9364 _413_
*9365 _414_
*9366 _415_
*9367 _416_
*9368 _417_
*9369 _418_
*9370 _419_
*9371 _420_
*9372 _421_
*9373 _422_
*9374 _423_
*9375 _424_
*9376 _425_
*9377 _426_
*9378 _427_
*9379 _428_
*9380 _429_
*9381 _430_
*9382 _431_
*9383 _432_
*9384 _433_
*9385 _434_
*9386 _435_
*9387 _436_
*9388 _437_
*9389 _438_
*9390 _439_
*9391 _440_
*9392 _441_
*9393 _442_
*9394 _443_
*9395 _444_
*9396 _445_
*9397 _446_
*9398 _447_
*9399 _448_
*9400 _449_
*9401 _450_
*9402 _451_
*9403 _452_
*9404 _453_
*9405 _454_
*9406 _455_
*9407 _456_
*9408 _457_
*9409 _458_
*9410 _459_
*9411 _460_
*9412 _461_
*9413 _462_
*9414 _463_
*9415 _464_
*9416 _465_
*9417 _466_
*9418 _467_
*9419 _468_
*9420 _469_
*9421 _470_
*9422 _471_
*9423 _472_
*9424 _473_
*9425 _474_
*9426 _475_
*9427 _476_
*9428 _477_
*9429 _478_
*9430 _479_
*9431 _480_
*9432 _481_
*9433 _482_
*9434 _483_
*9435 _484_
*9436 _485_
*9437 _486_
*9438 _487_
*9439 _488_
*9440 _489_
*9441 _490_
*9442 _491_
*9443 _492_
*9444 _493_
*9445 _494_
*9446 _495_
*9447 _496_
*9448 _497_
*9449 _498_
*9450 _499_
*9451 _500_
*9452 _518_
*9453 _519_
*9454 _520_
*9455 clkbuf_0_clk_i
*9456 clkbuf_0_clk_i_regs
*9457 clkbuf_1_0__f_clk_i
*9458 clkbuf_1_1__f_clk_i
*9459 clkbuf_2_0__f_clk_i_regs
*9460 clkbuf_2_1__f_clk_i_regs
*9461 clkbuf_2_2__f_clk_i_regs
*9462 clkbuf_2_3__f_clk_i_regs
*9463 clkbuf_regs_0_clk_i
*9464 clkload0
*9465 clkload1
*9466 clkload2
*9467 fanout122
*9468 fanout126
*9469 fanout133
*9470 fanout136
*9471 fanout140
*9472 fanout144
*9473 fanout148
*9474 fanout152
*9475 fanout156
*9476 input1
*9477 input10
*9478 input11
*9479 input12
*9480 input13
*9481 input14
*9482 input15
*9483 input16
*9484 input17
*9485 input18
*9486 input19
*9487 input2
*9488 input20
*9489 input21
*9490 input22
*9491 input23
*9492 input24
*9493 input25
*9494 input26
*9495 input27
*9496 input28
*9497 input29
*9498 input3
*9499 input30
*9500 input31
*9501 input32
*9502 input33
*9503 input34
*9504 input35
*9505 input36
*9506 input37
*9507 input38
*9508 input39
*9509 input4
*9510 input40
*9511 input41
*9512 input42
*9513 input43
*9514 input44
*9515 input45
*9516 input46
*9517 input47
*9518 input48
*9519 input49
*9520 input5
*9521 input50
*9522 input51
*9523 input52
*9524 input53
*9525 input54
*9526 input55
*9527 input56
*9528 input57
*9529 input58
*9530 input59
*9531 input6
*9532 input60
*9533 input61
*9534 input62
*9535 input63
*9536 input64
*9537 input65
*9538 input66
*9539 input67
*9540 input68
*9541 input69
*9542 input7
*9543 input70
*9544 input8
*9545 input9
*9546 load_slew120
*9547 load_slew121
*9548 load_slew124
*9549 load_slew125
*9550 load_slew129
*9551 load_slew130
*9552 load_slew131
*9553 load_slew135
*9554 load_slew137
*9555 load_slew138
*9556 load_slew139
*9557 load_slew143
*9558 load_slew145
*9559 load_slew147
*9560 load_slew150
*9561 load_slew151
*9562 load_slew155
*9563 load_slew159
*9564 load_slew162
*9565 load_slew163
*9566 output100
*9567 output101
*9568 output102
*9569 output103
*9570 output104
*9571 output105
*9572 output106
*9573 output107
*9574 output108
*9575 output109
*9576 output110
*9577 output111
*9578 output112
*9579 output113
*9580 output114
*9581 output115
*9582 output116
*9583 output117
*9584 output118
*9585 output119
*9586 output71
*9587 output72
*9588 output73
*9589 output74
*9590 output75
*9591 output76
*9592 output77
*9593 output78
*9594 output79
*9595 output80
*9596 output81
*9597 output82
*9598 output83
*9599 output84
*9600 output85
*9601 output86
*9602 output87
*9603 output88
*9604 output89
*9605 output90
*9606 output91
*9607 output92
*9608 output93
*9609 output94
*9610 output95
*9611 output96
*9612 output97
*9613 output98
*9614 output99
*9615 tlul_sram_if_macro
*9616 tlul_sram_if_macro_180
*9617 tlul_sram_if_macro_181
*9618 tlul_sram_if_macro_182
*9619 tlul_sram_if_macro_183
*9620 tlul_sram_if_macro_184
*9621 tlul_sram_if_macro_185
*9622 tlul_sram_if_macro_186
*9623 tlul_sram_if_macro_187
*9624 tlul_sram_if_macro_188
*9625 tlul_sram_if_macro_189
*9626 tlul_sram_if_macro_190
*9627 tlul_sram_if_macro_191
*9628 tlul_sram_if_macro_192
*9629 tlul_sram_if_macro_193
*9630 tlul_sram_if_macro_194
*9631 tlul_sram_if_macro_195
*9632 u_mem\.gen_byte\[0\]\.u_macro
*9633 u_mem\.gen_byte\[1\]\.u_macro
*9634 u_mem\.gen_byte\[2\]\.u_macro
*9635 u_mem\.gen_byte\[3\]\.u_macro
*9636 wire123
*9637 wire127
*9638 wire128
*9639 wire132
*9640 wire134
*9641 wire141
*9642 wire142
*9643 wire146
*9644 wire149
*9645 wire153
*9646 wire154
*9647 wire157
*9648 wire158
*9649 wire160
*9650 wire161
*9651 wire164
*9652 wire165
*9653 wire166
*9654 wire167
*9655 wire168
*9656 wire169
*9657 wire170
*9658 wire171
*9659 wire172
*9660 wire173
*9661 wire174
*9662 wire175
*9663 wire176
*9664 wire177
*9665 wire178
*9666 wire179

*PORTS
clk_i I
en_ifetch_i[0] I
en_ifetch_i[1] I
en_ifetch_i[2] I
en_ifetch_i[3] I
rst_ni I
tl_i[0] I
tl_i[100] I
tl_i[101] I
tl_i[102] I
tl_i[103] I
tl_i[104] I
tl_i[105] I
tl_i[106] I
tl_i[107] I
tl_i[108] I
tl_i[109] I
tl_i[10] I
tl_i[110] I
tl_i[111] I
tl_i[112] I
tl_i[113] I
tl_i[11] I
tl_i[12] I
tl_i[13] I
tl_i[14] I
tl_i[15] I
tl_i[16] I
tl_i[17] I
tl_i[18] I
tl_i[19] I
tl_i[1] I
tl_i[20] I
tl_i[21] I
tl_i[22] I
tl_i[23] I
tl_i[24] I
tl_i[25] I
tl_i[26] I
tl_i[27] I
tl_i[28] I
tl_i[29] I
tl_i[2] I
tl_i[30] I
tl_i[31] I
tl_i[32] I
tl_i[33] I
tl_i[34] I
tl_i[35] I
tl_i[36] I
tl_i[37] I
tl_i[38] I
tl_i[39] I
tl_i[3] I
tl_i[40] I
tl_i[41] I
tl_i[42] I
tl_i[43] I
tl_i[44] I
tl_i[45] I
tl_i[46] I
tl_i[47] I
tl_i[48] I
tl_i[49] I
tl_i[4] I
tl_i[50] I
tl_i[51] I
tl_i[52] I
tl_i[53] I
tl_i[54] I
tl_i[55] I
tl_i[56] I
tl_i[57] I
tl_i[58] I
tl_i[59] I
tl_i[5] I
tl_i[60] I
tl_i[61] I
tl_i[62] I
tl_i[63] I
tl_i[64] I
tl_i[65] I
tl_i[66] I
tl_i[67] I
tl_i[68] I
tl_i[69] I
tl_i[6] I
tl_i[70] I
tl_i[71] I
tl_i[72] I
tl_i[73] I
tl_i[74] I
tl_i[75] I
tl_i[76] I
tl_i[77] I
tl_i[78] I
tl_i[79] I
tl_i[7] I
tl_i[80] I
tl_i[81] I
tl_i[82] I
tl_i[83] I
tl_i[84] I
tl_i[85] I
tl_i[86] I
tl_i[87] I
tl_i[88] I
tl_i[89] I
tl_i[8] I
tl_i[90] I
tl_i[91] I
tl_i[92] I
tl_i[93] I
tl_i[94] I
tl_i[95] I
tl_i[96] I
tl_i[97] I
tl_i[98] I
tl_i[99] I
tl_i[9] I
tl_o[0] O
tl_o[10] O
tl_o[11] O
tl_o[12] O
tl_o[13] O
tl_o[14] O
tl_o[15] O
tl_o[16] O
tl_o[17] O
tl_o[18] O
tl_o[19] O
tl_o[1] O
tl_o[20] O
tl_o[21] O
tl_o[22] O
tl_o[23] O
tl_o[24] O
tl_o[25] O
tl_o[26] O
tl_o[27] O
tl_o[28] O
tl_o[29] O
tl_o[2] O
tl_o[30] O
tl_o[31] O
tl_o[32] O
tl_o[33] O
tl_o[34] O
tl_o[35] O
tl_o[36] O
tl_o[37] O
tl_o[38] O
tl_o[39] O
tl_o[3] O
tl_o[40] O
tl_o[41] O
tl_o[42] O
tl_o[43] O
tl_o[44] O
tl_o[45] O
tl_o[46] O
tl_o[47] O
tl_o[48] O
tl_o[49] O
tl_o[4] O
tl_o[50] O
tl_o[51] O
tl_o[52] O
tl_o[53] O
tl_o[54] O
tl_o[55] O
tl_o[56] O
tl_o[57] O
tl_o[58] O
tl_o[59] O
tl_o[5] O
tl_o[60] O
tl_o[61] O
tl_o[62] O
tl_o[63] O
tl_o[64] O
tl_o[65] O
tl_o[6] O
tl_o[7] O
tl_o[8] O
tl_o[9] O

*D_NET *3 0.0573654
*CONN
*P clk_i I
*I *9463:I I *D gf180mcu_fd_sc_mcu7t5v0__clkbuf_16
*I *9455:I I *D gf180mcu_fd_sc_mcu7t5v0__clkbuf_16
*CAP
1 clk_i 0.00193828
2 *9463:I 0
3 *9455:I 4.31787e-05
4 *3:73 0.000316904
5 *3:61 0.00124658
6 *3:54 0.00314248
7 *3:50 0.0051657
8 *3:40 0.00516841
9 *3:14 0.00920658
10 *3:12 0.00951998
11 *9455:I *191:10 1.63786e-05
12 *9455:I *261:10 9.01329e-05
13 *3:14 tl_o[2] 0.0034316
14 *3:40 tl_o[14] 0.000389405
15 *3:40 tl_o[21] 5.84574e-05
16 *3:40 tl_o[3] 0.000148236
17 *3:40 *9130:I 0.000142141
18 *3:40 *9258:A1 0.000267084
19 *3:40 *9258:B1 0.000453412
20 *3:40 *9480:I 0.00042701
21 *3:40 *9484:I 0.000519951
22 *3:40 *9529:I 0.000682331
23 *3:40 *9530:I 0.000367461
24 *3:40 *9531:I 2.43618e-05
25 *3:40 *9543:I 0.000338919
26 *3:40 *514:14 0.000143052
27 *3:50 tl_o[8] 6.86845e-05
28 *3:50 *9146:A1 0
29 *3:50 *9146:A2 0.000216363
30 *3:50 *9233:A1 0.000597873
31 *3:50 *9245:A3 2.96621e-05
32 *3:50 *9257:A1 7.30752e-05
33 *3:50 *9260:A2 0.000185126
34 *3:50 *9260:B 0.000558422
35 *3:50 *9261:A4 7.03182e-05
36 *3:50 *9291:A2 0.000115957
37 *3:50 *9313:A2 6.44359e-05
38 *3:50 *9374:S 0
39 *3:50 *9376:I1 0
40 *3:50 *9612:I 1.53727e-05
41 *3:50 *191:8 0.000355464
42 *3:50 *191:10 0
43 *3:50 *304:18 1.09653e-05
44 *3:50 *332:18 3.10417e-05
45 *3:50 *378:182 0.00298734
46 *3:50 *402:26 8.18373e-05
47 *3:50 *513:24 0.000670782
48 *3:50 *513:49 8.95196e-05
49 *3:50 *514:48 1.65939e-05
50 *3:50 *514:69 0
51 *3:50 *650:10 7.23657e-05
52 *3:54 *191:10 0.00176644
53 *3:54 *261:8 0.00309383
54 *3:54 *261:10 0.00032893
55 *3:61 *191:10 0.000356546
56 *3:61 *261:10 0.00226037
*RES
1 clk_i *3:12 18.142 
2 *3:12 *3:14 63.916 
3 *3:14 *3:40 48.752 
4 *3:40 *3:50 41.908 
5 *3:50 *3:54 25.856 
6 *3:54 *3:61 17.2544 
7 *3:61 *9455:I 5.04557 
8 *3:54 *3:73 2.052 
9 *3:73 *9463:I 9 
*END

*D_NET *4 0.012512
*CONN
*P en_ifetch_i[0] I
*I *9476:I I *D gf180mcu_fd_sc_mcu7t5v0__dlyd_1
*CAP
1 en_ifetch_i[0] 0.00161681
2 *9476:I 0.00161681
3 *9476:I tl_o[24] 0.000482882
4 *9476:I tl_o[25] 0.00255258
5 *9476:I tl_o[55] 0.00032652
6 *9476:I *9247:A2 0.00163733
7 *9476:I *9248:A3 0.00156286
8 *9476:I *9255:A1 6.25219e-05
9 *9476:I *9255:A2 8.36287e-05
10 *9476:I *9382:I1 0.000187957
11 *9476:I *9438:D 8.52631e-06
12 *9476:I *9499:I 0.000255697
13 *9476:I *9578:I 7.73261e-05
14 *9476:I *9597:I 0.000639685
15 *9476:I *474:44 0.000288238
16 *9476:I *514:14 0.000521211
17 *9476:I *610:14 0.000579934
18 *9476:I *613:22 1.15077e-05
*RES
1 en_ifetch_i[0] *9476:I 45.034 
*END

*D_NET *5 0.00822547
*CONN
*P en_ifetch_i[1] I
*I *9487:I I *D gf180mcu_fd_sc_mcu7t5v0__dlyd_1
*CAP
1 en_ifetch_i[1] 0.00142062
2 *9487:I 0.00142062
3 *9487:I tl_o[12] 0.00172444
4 *9487:I tl_o[55] 0.000937516
5 *9487:I tl_o[58] 0.000642556
6 *9487:I tl_o[63] 0.000758394
7 *9487:I *9216:A1 0
8 *9487:I *9438:CLK 0.000204162
9 *9487:I *9509:I 0.00080921
10 *9487:I *9578:I 0.000307966
*RES
1 en_ifetch_i[1] *9487:I 34.514 
*END

*D_NET *6 0.0088145
*CONN
*P en_ifetch_i[2] I
*I *9498:I I *D gf180mcu_fd_sc_mcu7t5v0__dlyd_1
*CAP
1 en_ifetch_i[2] 0.00158292
2 *9498:I 0.00158292
3 *9498:I tl_o[48] 0.000526711
4 *9498:I tl_o[49] 6.75674e-05
5 *9498:I tl_o[55] 4.24678e-05
6 *9498:I tl_o[56] 5.9876e-05
7 *9498:I *9436:D 0.00023739
8 *9498:I *9436:CLK 3.1909e-05
9 *9498:I *9488:I 0.0016049
10 *9498:I *9509:I 0.00276739
11 *9498:I *9579:I 0.000310458
*RES
1 en_ifetch_i[2] *9498:I 32.082 
*END

*D_NET *7 0.00922046
*CONN
*P en_ifetch_i[3] I
*I *9509:I I *D gf180mcu_fd_sc_mcu7t5v0__dlyd_1
*CAP
1 en_ifetch_i[3] 0.00217974
2 *9509:I 0.00217974
3 *9509:I tl_o[12] 8.22328e-05
4 *9509:I tl_o[24] 7.45322e-05
5 *9509:I tl_o[48] 0.000764966
6 *9509:I *9438:D 0.000143801
7 *9509:I *9578:I 0.000218841
8 *9487:I *9509:I 0.00080921
9 *9498:I *9509:I 0.00276739
*RES
1 en_ifetch_i[3] *9509:I 35.046 
*END

*D_NET *8 0.0134818
*CONN
*P rst_ni I
*I *9520:I I *D gf180mcu_fd_sc_mcu7t5v0__dlyd_1
*CAP
1 rst_ni 0.00108938
2 *9520:I 0.00108938
3 *9520:I tl_o[13] 0.000816688
4 *9520:I tl_o[58] 3.80852e-05
5 *9520:I tl_o[63] 0.000744738
6 *9520:I tl_o[65] 2.57058e-06
7 *9520:I tl_o[6] 0.00162712
8 *9520:I *9216:A2 0.000177992
9 *9520:I *9385:I1 9.17202e-06
10 *9520:I *9385:S 0.0005421
11 *9520:I *9436:CLK 0.000257796
12 *9520:I *9528:I 0.00450232
13 *9520:I *9573:I 4.93216e-05
14 *9520:I *9576:I 9.50551e-05
15 *9520:I *9581:I 0.000304061
16 *9520:I *9597:I 0.00112808
17 *9520:I *9599:I 1.46914e-05
18 *9520:I *559:24 0.000327614
19 *9520:I *594:135 0.000665678
*RES
1 rst_ni *9520:I 35.578 
*END

*D_NET *9 0.0101561
*CONN
*P tl_i[0] I
*I *9531:I I *D gf180mcu_fd_sc_mcu7t5v0__dlyd_1
*CAP
1 tl_i[0] 0.00223205
2 *9531:I 0.00223205
3 *9531:I tl_o[2] 0
4 *9531:I tl_o[51] 5.25524e-05
5 *9531:I *9230:A2 0.000378609
6 *9531:I *9232:A2 0.000378609
7 *9531:I *9381:I0 0.00103924
8 *9531:I *9482:I 0.000222486
9 *9531:I *9484:I 0.00022008
10 *9531:I *9527:I 0.000423033
11 *9531:I *9530:I 0.000560727
12 *9531:I *9534:I 0.00226604
13 *9531:I *422:48 0.00011747
14 *9531:I *609:8 8.81341e-06
15 *3:40 *9531:I 2.43618e-05
*RES
1 tl_i[0] *9531:I 43.742 
*END

*D_NET *10 0.00781016
*CONN
*P tl_i[100] I
*I *9542:I I *D gf180mcu_fd_sc_mcu7t5v0__dlyd_1
*CAP
1 tl_i[100] 0.00207497
2 *9542:I 0.00207497
3 *9542:I tl_o[21] 0.00106665
4 *9542:I tl_o[3] 0.000789823
5 *9542:I tl_o[51] 0.000292084
6 *9542:I tl_o[5] 0.0009075
7 *9542:I tl_o[62] 0.000338957
8 *9542:I *9226:A1 3.35867e-05
9 *9542:I *9226:A2 0.000139253
10 *9542:I *9380:S 2.65866e-05
11 *9542:I *9535:I 6.06919e-05
12 *9542:I *9539:I 5.09739e-06
*RES
1 tl_i[100] *9542:I 38.27 
*END

*D_NET *11 0.00676184
*CONN
*P tl_i[101] I
*I *9544:I I *D gf180mcu_fd_sc_mcu7t5v0__dlyd_1
*CAP
1 tl_i[101] 0.00105279
2 *9544:I 0.00105279
3 *9544:I tl_o[49] 0.00188842
4 *9544:I *9236:A2 7.24161e-06
5 *9544:I *9250:A2 1.52768e-05
6 *9544:I *9250:A3 0.000419251
7 *9544:I *9255:A2 9.29932e-05
8 *9544:I *9262:A2 7.6798e-06
9 *9544:I *9477:I 0.000401371
10 *9544:I *9536:I 0.000233011
11 *9544:I *9540:I 0.00159101
*RES
1 tl_i[101] *9544:I 19.51 
*END

*D_NET *12 0.00950228
*CONN
*P tl_i[102] I
*I *9545:I I *D gf180mcu_fd_sc_mcu7t5v0__dlyd_1
*CAP
1 tl_i[102] 0.00130151
2 *9545:I 0.00130151
3 *9545:I tl_o[23] 0.00179223
4 *9545:I tl_o[4] 0.00147608
5 *9545:I tl_o[54] 9.89156e-05
6 *9545:I *9227:A1 2.05156e-05
7 *9545:I *9227:A2 0.00137541
8 *9545:I *9249:A2 7.73839e-05
9 *9545:I *9479:I 0.00050048
10 *9545:I *9481:I 0.000617635
11 *9545:I *256:12 4.27914e-05
12 *9545:I *404:14 0.000110319
13 *9545:I *460:110 0.000189916
14 *9545:I *460:123 0.000426308
15 *9545:I *460:129 0.000171289
*RES
1 tl_i[102] *9545:I 31.778 
*END

*D_NET *13 0.0072947
*CONN
*P tl_i[103] I
*I *9477:I I *D gf180mcu_fd_sc_mcu7t5v0__dlyd_1
*CAP
1 tl_i[103] 0.000613251
2 *9477:I 0.000613251
3 *9477:I tl_o[27] 0.000875242
4 *9477:I tl_o[57] 0.00195094
5 *9477:I *9250:A3 0.000460494
6 *9477:I *9262:A2 0.000307921
7 *9477:I *9262:B 7.23688e-05
8 *9477:I *9388:B 0.000206341
9 *9477:I *9540:I 0.0015969
10 *9477:I *9639:I 0.000196614
11 *9544:I *9477:I 0.000401371
*RES
1 tl_i[103] *9477:I 26.458 
*END

*D_NET *14 0.00720468
*CONN
*P tl_i[104] I
*I *9478:I I *D gf180mcu_fd_sc_mcu7t5v0__dlyd_1
*CAP
1 tl_i[104] 0.00121341
2 *9478:I 0.00121341
3 *9478:I tl_o[56] 0.00125469
4 *9478:I tl_o[64] 0.000206333
5 *9478:I *9249:A2 0.000151575
6 *9478:I *9254:A2 0.000153787
7 *9478:I *9263:A2 0.000293123
8 *9478:I *9488:I 3.75374e-05
9 *9478:I *9526:I 0.0004315
10 *9478:I *9591:I 0.000973394
11 *9478:I *9598:I 8.0977e-05
12 *9478:I *460:150 0.000292838
13 *9478:I *506:20 0.00029445
14 *9478:I *512:16 0.000607656
*RES
1 tl_i[104] *9478:I 29.27 
*END

*D_NET *15 0.00752837
*CONN
*P tl_i[105] I
*I *9479:I I *D gf180mcu_fd_sc_mcu7t5v0__dlyd_1
*CAP
1 tl_i[105] 0.00108863
2 *9479:I 0.00108863
3 *9479:I tl_o[54] 6.35847e-05
4 *9479:I *9223:A1 0.000460436
5 *9479:I *9227:A1 5.1289e-05
6 *9479:I *9379:I1 8.81341e-06
7 *9479:I *9433:D 0.00222923
8 *9479:I *9468:I 0.000127484
9 *9479:I *9481:I 0.000775131
10 *9479:I *9532:I 3.41801e-05
11 *9479:I *9543:I 0.000807653
12 *9479:I *9639:I 2.23783e-05
13 *9479:I *295:20 9.08447e-05
14 *9479:I *404:14 0.000153129
15 *9479:I *460:123 0
16 *9479:I *460:129 2.64841e-05
17 *9545:I *9479:I 0.00050048
*RES
1 tl_i[105] *9479:I 28.282 
*END

*D_NET *16 0.00748324
*CONN
*P tl_i[106] I
*I *9480:I I *D gf180mcu_fd_sc_mcu7t5v0__dlyd_1
*CAP
1 tl_i[106] 0.000938716
2 *9480:I 0.000938716
3 *9480:I tl_o[21] 0.000344182
4 *9480:I tl_o[23] 0.000390205
5 *9480:I tl_o[4] 0.000390205
6 *9480:I tl_o[5] 3.73535e-05
7 *9480:I tl_o[8] 0.000208417
8 *9480:I *9258:A1 0.000117421
9 *9480:I *9258:B1 6.63508e-06
10 *9480:I *9261:A1 0.000989313
11 *9480:I *9261:A4 7.88152e-05
12 *9480:I *9262:B 0.000267726
13 *9480:I *9529:I 0.0011263
14 *9480:I *9533:I 0.000206333
15 *9480:I *9535:I 0.00087642
16 *9480:I *393:14 5.96204e-05
17 *9480:I *513:24 7.98484e-05
18 *3:40 *9480:I 0.00042701
*RES
1 tl_i[106] *9480:I 36.37 
*END

*D_NET *21 0.007185
*CONN
*P tl_i[110] I
*I *9481:I I *D gf180mcu_fd_sc_mcu7t5v0__dlyd_1
*CAP
1 tl_i[110] 0.00175715
2 *9481:I 0.00175715
3 *9481:I tl_o[10] 0.00149236
4 *9481:I *9223:A1 7.93962e-05
5 *9481:I *9223:A2 8.1499e-05
6 *9481:I *9227:A1 3.94587e-05
7 *9481:I *9379:I1 4.58601e-06
8 *9481:I *295:20 0.000141916
9 *9481:I *365:14 8.69862e-05
10 *9481:I *404:14 3.82094e-05
11 *9481:I *460:123 0
12 *9481:I *460:129 6.26721e-05
13 *9481:I *594:32 0.000250857
14 *9479:I *9481:I 0.000775131
15 *9545:I *9481:I 0.000617635
*RES
1 tl_i[110] *9481:I 38.574 
*END

*D_NET *22 0.0110551
*CONN
*P tl_i[111] I
*I *9482:I I *D gf180mcu_fd_sc_mcu7t5v0__clkbuf_2
*CAP
1 tl_i[111] 0.00105781
2 *9482:I 0.00105781
3 *9482:I tl_o[51] 0.000934538
4 *9482:I tl_o[60] 0.00011561
5 *9482:I *9217:A1 0
6 *9482:I *9380:I1 0
7 *9482:I *9437:D 8.89491e-06
8 *9482:I *9483:I 0.0066933
9 *9482:I *9484:I 0.000964604
10 *9531:I *9482:I 0.000222486
*RES
1 tl_i[111] *9482:I 32.994 
*END

*D_NET *23 0.0142549
*CONN
*P tl_i[112] I
*I *9483:I I *D gf180mcu_fd_sc_mcu7t5v0__clkbuf_2
*CAP
1 tl_i[112] 0.00085423
2 *9483:I 0.00085423
3 *9483:I tl_o[2] 7.00774e-06
4 *9483:I tl_o[60] 0.00580737
5 *9483:I *9496:I 3.87534e-05
6 *9482:I *9483:I 0.0066933
*RES
1 tl_i[112] *9483:I 34.362 
*END

*D_NET *24 0.00959646
*CONN
*P tl_i[113] I
*I *9484:I I *D gf180mcu_fd_sc_mcu7t5v0__dlyd_1
*CAP
1 tl_i[113] 0.000751842
2 *9484:I 0.000751842
3 *9484:I tl_o[21] 5.44937e-05
4 *9484:I tl_o[3] 0.000337041
5 *9484:I tl_o[5] 6.05988e-05
6 *9484:I *9527:I 0.000219563
7 *9484:I *9530:I 0.00085092
8 *9484:I *9534:I 2.3367e-05
9 *9484:I *9538:I 0.000219563
10 *9484:I *9539:I 0.00166399
11 *9484:I *422:14 0.00255487
12 *9484:I *422:85 0.000403738
13 *9482:I *9484:I 0.000964604
14 *9531:I *9484:I 0.00022008
15 *3:40 *9484:I 0.000519951
*RES
1 tl_i[113] *9484:I 28.89 
*END

*D_NET *29 0.00396995
*CONN
*P tl_i[15] I
*I *9485:I I *D gf180mcu_fd_sc_mcu7t5v0__dlyd_1
*CAP
1 tl_i[15] 0.000499727
2 *9485:I 0.000499727
3 *9485:I tl_o[1] 0.00126105
4 *9485:I tl_o[27] 0.000216988
5 *9485:I tl_o[57] 0.00114679
6 *9485:I *9262:B 0.00023127
7 *9485:I *9489:I 0.000114398
*RES
1 tl_i[15] *9485:I 13.202 
*END

*D_NET *30 0.0099078
*CONN
*P tl_i[16] I
*I *9486:I I *D gf180mcu_fd_sc_mcu7t5v0__dlyd_1
*CAP
1 tl_i[16] 0.000850324
2 *9486:I 0.000850324
3 *9486:I tl_o[13] 0.00243657
4 *9486:I tl_o[40] 0.000144776
5 *9486:I tl_o[55] 9.37576e-05
6 *9486:I tl_o[63] 0.0037632
7 *9486:I tl_o[65] 0.000759784
8 *9486:I *9254:A1 0.000386421
9 *9486:I *9436:CLK 3.67266e-05
10 *9486:I *610:14 0.000585903
*RES
1 tl_i[16] *9486:I 30.866 
*END

*D_NET *31 0.00598452
*CONN
*P tl_i[17] I
*I *9488:I I *D gf180mcu_fd_sc_mcu7t5v0__dlyd_1
*CAP
1 tl_i[17] 0.00187237
2 *9488:I 0.00187237
3 *9488:I tl_o[48] 0
4 *9488:I *9219:A2 3.83835e-06
5 *9488:I *9254:A2 2.49387e-05
6 *9488:I *9499:I 0.000117634
7 *9488:I *9526:I 3.2419e-05
8 *9488:I *9576:I 0.000406773
9 *9488:I *9581:I 1.17512e-05
10 *9478:I *9488:I 3.75374e-05
11 *9498:I *9488:I 0.0016049
*RES
1 tl_i[17] *9488:I 29.726 
*END

*D_NET *32 0.00327015
*CONN
*P tl_i[18] I
*I *9489:I I *D gf180mcu_fd_sc_mcu7t5v0__dlyd_1
*CAP
1 tl_i[18] 0.000360158
2 *9489:I 0.000360158
3 *9489:I tl_o[1] 0.000986284
4 *9489:I tl_o[52] 0.00144621
5 *9489:I *9262:B 2.9378e-06
6 *9485:I *9489:I 0.000114398
*RES
1 tl_i[18] *9489:I 11.91 
*END

*D_NET *44 0.00224061
*CONN
*P tl_i[29] I
*I *9490:I I *D gf180mcu_fd_sc_mcu7t5v0__dlyd_1
*CAP
1 tl_i[29] 0.0011203
2 *9490:I 0.0011203
*RES
1 tl_i[29] *9490:I 11.758 
*END

*D_NET *46 0.00205869
*CONN
*P tl_i[30] I
*I *9491:I I *D gf180mcu_fd_sc_mcu7t5v0__dlyd_1
*CAP
1 tl_i[30] 0.00102934
2 *9491:I 0.00102934
*RES
1 tl_i[30] *9491:I 11.302 
*END

*D_NET *47 0.00342829
*CONN
*P tl_i[31] I
*I *9492:I I *D gf180mcu_fd_sc_mcu7t5v0__dlyd_1
*CAP
1 tl_i[31] 0.00161662
2 *9492:I 0.00161662
3 *9492:I *9274:A1 0.000195051
*RES
1 tl_i[31] *9492:I 24.71 
*END

*D_NET *48 0.00409629
*CONN
*P tl_i[32] I
*I *9493:I I *D gf180mcu_fd_sc_mcu7t5v0__dlyd_1
*CAP
1 tl_i[32] 0.00149231
2 *9493:I 0.00149231
3 *9493:I *410:18 0.00111166
*RES
1 tl_i[32] *9493:I 24.71 
*END

*D_NET *49 0.00225644
*CONN
*P tl_i[33] I
*I *9494:I I *D gf180mcu_fd_sc_mcu7t5v0__dlyd_1
*CAP
1 tl_i[33] 0.00112822
2 *9494:I 0.00112822
*RES
1 tl_i[33] *9494:I 11.834 
*END

*D_NET *50 0.00303391
*CONN
*P tl_i[34] I
*I *9495:I I *D gf180mcu_fd_sc_mcu7t5v0__dlyd_1
*CAP
1 tl_i[34] 0.00137367
2 *9495:I 0.00137367
3 *9495:I *9496:I 0.000286574
4 *9495:I *444:31 0
*RES
1 tl_i[34] *9495:I 23.19 
*END

*D_NET *51 0.00561303
*CONN
*P tl_i[35] I
*I *9496:I I *D gf180mcu_fd_sc_mcu7t5v0__dlyd_1
*CAP
1 tl_i[35] 0.00133384
2 *9496:I 0.00133384
3 *9496:I tl_o[2] 0.00123173
4 *9496:I *9217:A1 0
5 *9496:I *9220:A1 0.00070872
6 *9496:I *9280:A1 0.000130165
7 *9496:I *9341:I0 0.000308865
8 *9496:I *9380:I1 0
9 *9496:I *444:31 0.00015662
10 *9496:I *449:16 8.39113e-05
11 *9483:I *9496:I 3.87534e-05
12 *9495:I *9496:I 0.000286574
*RES
1 tl_i[35] *9496:I 26.306 
*END

*D_NET *52 0.00821446
*CONN
*P tl_i[36] I
*I *9497:I I *D gf180mcu_fd_sc_mcu7t5v0__dlyd_1
*CAP
1 tl_i[36] 0.000618799
2 *9497:I 0.000618799
3 *9497:I tl_o[22] 0.000347016
4 *9497:I tl_o[51] 0.000360218
5 *9497:I tl_o[62] 0.00111812
6 *9497:I *9220:A1 0.0010871
7 *9497:I *9341:S 0
8 *9497:I *9380:I1 0.00235553
9 *9497:I *9383:I1 0.00125381
10 *9497:I *9435:D 0.000379283
11 *9497:I *9594:I 7.57844e-05
*RES
1 tl_i[36] *9497:I 25.546 
*END

*D_NET *53 0.0133074
*CONN
*P tl_i[37] I
*I *9499:I I *D gf180mcu_fd_sc_mcu7t5v0__dlyd_1
*CAP
1 tl_i[37] 0.00229268
2 *9499:I 0.00229268
3 *9499:I tl_o[25] 0.000218938
4 *9499:I tl_o[6] 0
5 *9499:I *9219:A2 7.83779e-05
6 *9499:I *9248:A2 0.00119217
7 *9499:I *9357:I0 0
8 *9499:I *9382:I1 9.18027e-05
9 *9499:I *9438:D 0.000245338
10 *9499:I *9526:I 0.000994765
11 *9499:I *9581:I 0.00111983
12 *9499:I *9599:I 0
13 *9499:I *412:64 0.00387167
14 *9499:I *412:79 8.74028e-05
15 *9499:I *419:14 0
16 *9499:I *419:27 0
17 *9499:I *445:14 0.000132679
18 *9499:I *445:20 0.000250919
19 *9499:I *512:16 4.75362e-05
20 *9499:I *610:14 1.72881e-05
21 *9476:I *9499:I 0.000255697
22 *9488:I *9499:I 0.000117634
*RES
1 tl_i[37] *9499:I 39.53 
*END

*D_NET *54 0.00381641
*CONN
*P tl_i[38] I
*I *9500:I I *D gf180mcu_fd_sc_mcu7t5v0__dlyd_1
*CAP
1 tl_i[38] 0.000994841
2 *9500:I 0.000994841
3 *9500:I tl_o[41] 0.000297257
4 *9500:I *9357:I0 0.000214737
5 *9500:I *9357:S 0.00131474
*RES
1 tl_i[38] *9500:I 14.266 
*END

*D_NET *55 0.00326101
*CONN
*P tl_i[39] I
*I *9501:I I *D gf180mcu_fd_sc_mcu7t5v0__dlyd_1
*CAP
1 tl_i[39] 0.00104366
2 *9501:I 0.00104366
3 *9501:I tl_o[12] 0.000355628
4 *9501:I tl_o[41] 0.000481688
5 *9501:I tl_o[63] 0.000186796
6 *9501:I *380:8 0.000149579
*RES
1 tl_i[39] *9501:I 22.81 
*END

*D_NET *57 0.00288048
*CONN
*P tl_i[40] I
*I *9502:I I *D gf180mcu_fd_sc_mcu7t5v0__dlyd_1
*CAP
1 tl_i[40] 0.00136861
2 *9502:I 0.00136861
3 *9502:I *419:27 0.000143266
*RES
1 tl_i[40] *9502:I 23.19 
*END

*D_NET *58 0.00308917
*CONN
*P tl_i[41] I
*I *9503:I I *D gf180mcu_fd_sc_mcu7t5v0__dlyd_1
*CAP
1 tl_i[41] 0.00145808
2 *9503:I 0.00145808
3 *9503:I *447:45 0.000173001
*RES
1 tl_i[41] *9503:I 23.95 
*END

*D_NET *59 0.00483502
*CONN
*P tl_i[42] I
*I *9504:I I *D gf180mcu_fd_sc_mcu7t5v0__dlyd_1
*CAP
1 tl_i[42] 0.00145274
2 *9504:I 0.00145274
3 *9504:I *9289:A1 1.81888e-05
4 *9504:I *9505:I 0
5 *9504:I *447:45 0.00191136
*RES
1 tl_i[42] *9504:I 25.014 
*END

*D_NET *60 0.00255038
*CONN
*P tl_i[43] I
*I *9505:I I *D gf180mcu_fd_sc_mcu7t5v0__dlyd_1
*CAP
1 tl_i[43] 0.00127519
2 *9505:I 0.00127519
3 *9504:I *9505:I 0
*RES
1 tl_i[43] *9505:I 21.898 
*END

*D_NET *61 0.00309657
*CONN
*P tl_i[44] I
*I *9506:I I *D gf180mcu_fd_sc_mcu7t5v0__dlyd_1
*CAP
1 tl_i[44] 0.00154828
2 *9506:I 0.00154828
*RES
1 tl_i[44] *9506:I 23.874 
*END

*D_NET *62 0.00347219
*CONN
*P tl_i[45] I
*I *9507:I I *D gf180mcu_fd_sc_mcu7t5v0__dlyd_1
*CAP
1 tl_i[45] 0.000891821
2 *9507:I 0.000891821
3 *9507:I *9512:I 0.00168855
*RES
1 tl_i[45] *9507:I 16.866 
*END

*D_NET *63 0.00100795
*CONN
*P tl_i[46] I
*I *9508:I I *D gf180mcu_fd_sc_mcu7t5v0__dlyd_1
*CAP
1 tl_i[46] 0.000205424
2 *9508:I 0.000205424
3 *9508:I *9510:I 0.000511573
4 *9508:I *9511:I 8.55242e-05
*RES
1 tl_i[46] *9508:I 11.698 
*END

*D_NET *64 0.00203442
*CONN
*P tl_i[47] I
*I *9510:I I *D gf180mcu_fd_sc_mcu7t5v0__dlyd_1
*CAP
1 tl_i[47] 0.00022853
2 *9510:I 0.00022853
3 *9510:I *9511:I 0.000633474
4 *9510:I *9512:I 0.000432315
5 *9508:I *9510:I 0.000511573
*RES
1 tl_i[47] *9510:I 13.218 
*END

*D_NET *65 0.00229599
*CONN
*P tl_i[48] I
*I *9511:I I *D gf180mcu_fd_sc_mcu7t5v0__dlyd_1
*CAP
1 tl_i[48] 0.000521522
2 *9511:I 0.000521522
3 *9511:I *9512:I 0.000533951
4 *9508:I *9511:I 8.55242e-05
5 *9510:I *9511:I 0.000633474
*RES
1 tl_i[48] *9511:I 14.586 
*END

*D_NET *66 0.00319695
*CONN
*P tl_i[49] I
*I *9512:I I *D gf180mcu_fd_sc_mcu7t5v0__dlyd_1
*CAP
1 tl_i[49] 0.000271069
2 *9512:I 0.000271069
3 *9507:I *9512:I 0.00168855
4 *9510:I *9512:I 0.000432315
5 *9511:I *9512:I 0.000533951
*RES
1 tl_i[49] *9512:I 14.89 
*END

*D_NET *68 0.00367917
*CONN
*P tl_i[50] I
*I *9513:I I *D gf180mcu_fd_sc_mcu7t5v0__dlyd_1
*CAP
1 tl_i[50] 0.00128548
2 *9513:I 0.00128548
3 *9513:I tl_o[38] 0.00108207
4 *9513:I *9514:I 2.6126e-05
*RES
1 tl_i[50] *9513:I 24.178 
*END

*D_NET *69 0.002261
*CONN
*P tl_i[51] I
*I *9514:I I *D gf180mcu_fd_sc_mcu7t5v0__dlyd_1
*CAP
1 tl_i[51] 0.00111744
2 *9514:I 0.00111744
3 *9513:I *9514:I 2.6126e-05
*RES
1 tl_i[51] *9514:I 11.53 
*END

*D_NET *70 0.00205869
*CONN
*P tl_i[52] I
*I *9515:I I *D gf180mcu_fd_sc_mcu7t5v0__dlyd_1
*CAP
1 tl_i[52] 0.00102934
2 *9515:I 0.00102934
*RES
1 tl_i[52] *9515:I 11.302 
*END

*D_NET *71 0.00316083
*CONN
*P tl_i[53] I
*I *9516:I I *D gf180mcu_fd_sc_mcu7t5v0__dlyd_1
*CAP
1 tl_i[53] 0.00156354
2 *9516:I 0.00156354
3 *9516:I *502:10 3.37485e-05
*RES
1 tl_i[53] *9516:I 24.254 
*END

*D_NET *72 0.0042075
*CONN
*P tl_i[54] I
*I *9517:I I *D gf180mcu_fd_sc_mcu7t5v0__dlyd_1
*CAP
1 tl_i[54] 0.0016183
2 *9517:I 0.0016183
3 *9517:I *9518:I 0.000970903
*RES
1 tl_i[54] *9517:I 24.482 
*END

*D_NET *73 0.00461869
*CONN
*P tl_i[55] I
*I *9518:I I *D gf180mcu_fd_sc_mcu7t5v0__dlyd_1
*CAP
1 tl_i[55] 0.00182389
2 *9518:I 0.00182389
3 *9517:I *9518:I 0.000970903
*RES
1 tl_i[55] *9518:I 26.458 
*END

*D_NET *74 0.00250459
*CONN
*P tl_i[56] I
*I *9519:I I *D gf180mcu_fd_sc_mcu7t5v0__dlyd_1
*CAP
1 tl_i[56] 0.000834634
2 *9519:I 0.000834634
3 *9519:I *9521:I 0.000314624
4 *9519:I *9524:I 0.000520702
*RES
1 tl_i[56] *9519:I 16.1494 
*END

*D_NET *75 0.00199162
*CONN
*P tl_i[57] I
*I *9521:I I *D gf180mcu_fd_sc_mcu7t5v0__dlyd_1
*CAP
1 tl_i[57] 0.000306508
2 *9521:I 0.000306508
3 *9521:I *9522:I 0.000536129
4 *9521:I *9524:I 0.000527851
5 *9519:I *9521:I 0.000314624
*RES
1 tl_i[57] *9521:I 14.5534 
*END

*D_NET *76 0.00203348
*CONN
*P tl_i[58] I
*I *9522:I I *D gf180mcu_fd_sc_mcu7t5v0__dlyd_1
*CAP
1 tl_i[58] 0.000268597
2 *9522:I 0.000268597
3 *9522:I *9523:I 0.000520702
4 *9522:I *9524:I 0.000439452
5 *9521:I *9522:I 0.000536129
*RES
1 tl_i[58] *9522:I 13.4134 
*END

*D_NET *77 0.000974514
*CONN
*P tl_i[59] I
*I *9523:I I *D gf180mcu_fd_sc_mcu7t5v0__dlyd_1
*CAP
1 tl_i[59] 0.000226906
2 *9523:I 0.000226906
3 *9522:I *9523:I 0.000520702
*RES
1 tl_i[59] *9523:I 11.7414 
*END

*D_NET *79 0.00244955
*CONN
*P tl_i[60] I
*I *9524:I I *D gf180mcu_fd_sc_mcu7t5v0__dlyd_1
*CAP
1 tl_i[60] 0.000480774
2 *9524:I 0.000480774
3 *9519:I *9524:I 0.000520702
4 *9521:I *9524:I 0.000527851
5 *9522:I *9524:I 0.000439452
*RES
1 tl_i[60] *9524:I 14.7814 
*END

*D_NET *80 0.0115432
*CONN
*P tl_i[61] I
*I *9525:I I *D gf180mcu_fd_sc_mcu7t5v0__dlyd_1
*CAP
1 tl_i[61] 0.000825125
2 *9525:I 0.000825125
3 *9525:I tl_o[8] 0.00305328
4 *9525:I *9257:A1 0.000508133
5 *9525:I *9257:B1 0.00133698
6 *9525:I *9257:B2 0.000587226
7 *9525:I *9258:A1 0.000816441
8 *9525:I *9259:A2 0.00034952
9 *9525:I *9260:B 0.000845402
10 *9525:I *9537:I 0.000665768
11 *9525:I *9538:I 2.63526e-05
12 *9525:I *405:25 0.000160913
13 *9525:I *405:31 0.00040743
14 *9525:I *412:10 0.000121387
15 *9525:I *512:34 0.000255669
16 *9525:I *514:14 0.00048092
17 *9525:I *514:21 0.00027755
*RES
1 tl_i[61] *9525:I 31.17 
*END

*D_NET *81 0.0115656
*CONN
*P tl_i[62] I
*I *9526:I I *D gf180mcu_fd_sc_mcu7t5v0__dlyd_1
*CAP
1 tl_i[62] 0.00130015
2 *9526:I 0.00130015
3 *9526:I tl_o[64] 0.00110135
4 *9526:I tl_o[6] 0.000149576
5 *9526:I *9221:A1 2.41778e-05
6 *9526:I *9528:I 0.000183879
7 *9526:I *9598:I 0.0011949
8 *9526:I *393:14 9.45217e-05
9 *9526:I *412:45 8.06703e-05
10 *9526:I *412:64 0.00206921
11 *9526:I *512:16 0.00260834
12 *9478:I *9526:I 0.0004315
13 *9488:I *9526:I 3.2419e-05
14 *9499:I *9526:I 0.000994765
*RES
1 tl_i[62] *9526:I 33.602 
*END

*D_NET *82 0.00978196
*CONN
*P tl_i[63] I
*I *9527:I I *D gf180mcu_fd_sc_mcu7t5v0__dlyd_1
*CAP
1 tl_i[63] 0.00156397
2 *9527:I 0.00156397
3 *9527:I tl_o[0] 0.000568959
4 *9527:I tl_o[5] 0
5 *9527:I tl_o[60] 0.0044534
6 *9527:I tl_o[62] 0
7 *9527:I *9381:I0 0.000817895
8 *9527:I *9534:I 0
9 *9527:I *9535:I 1.72856e-05
10 *9527:I *9538:I 0.000153875
11 *9484:I *9527:I 0.000219563
12 *9531:I *9527:I 0.000423033
*RES
1 tl_i[63] *9527:I 31.93 
*END

*D_NET *83 0.013248
*CONN
*P tl_i[64] I
*I *9528:I I *D gf180mcu_fd_sc_mcu7t5v0__dlyd_1
*CAP
1 tl_i[64] 0.000752822
2 *9528:I 0.000752822
3 *9528:I tl_o[53] 0.00180248
4 *9528:I tl_o[56] 0.00213804
5 *9528:I tl_o[6] 0.0011952
6 *9528:I *9436:CLK 5.87561e-06
7 *9528:I *9576:I 0.000395221
8 *9528:I *9599:I 0.000906665
9 *9528:I *475:16 0.000269857
10 *9528:I *559:24 0.0003428
11 *9520:I *9528:I 0.00450232
12 *9526:I *9528:I 0.000183879
*RES
1 tl_i[64] *9528:I 34.058 
*END

*D_NET *84 0.00752665
*CONN
*P tl_i[65] I
*I *9529:I I *D gf180mcu_fd_sc_mcu7t5v0__dlyd_1
*CAP
1 tl_i[65] 0.0012497
2 *9529:I 0.0012497
3 *9529:I tl_o[14] 0.000118699
4 *9529:I tl_o[20] 3.14861e-06
5 *9529:I *9257:B1 7.11238e-05
6 *9529:I *9257:B2 9.26705e-05
7 *9529:I *9258:A1 2.3061e-05
8 *9529:I *9258:B1 0.000144687
9 *9529:I *9260:A2 0.000541251
10 *9529:I *9261:A1 0.00148645
11 *9529:I *9535:I 0.000632425
12 *9529:I *9543:I 0.000105105
13 *9480:I *9529:I 0.0011263
14 *3:40 *9529:I 0.000682331
*RES
1 tl_i[65] *9529:I 19.814 
*END

*D_NET *85 0.00613395
*CONN
*P tl_i[66] I
*I *9530:I I *D gf180mcu_fd_sc_mcu7t5v0__dlyd_1
*CAP
1 tl_i[66] 0.00123122
2 *9530:I 0.00123122
3 *9530:I tl_o[14] 2.9846e-05
4 *9530:I tl_o[20] 2.9846e-05
5 *9530:I tl_o[21] 0.000247575
6 *9530:I tl_o[51] 0.00144934
7 *9530:I tl_o[5] 0.000135795
8 *9484:I *9530:I 0.00085092
9 *9531:I *9530:I 0.000560727
10 *3:40 *9530:I 0.000367461
*RES
1 tl_i[66] *9530:I 26.078 
*END

*D_NET *86 0.00666618
*CONN
*P tl_i[67] I
*I *9532:I I *D gf180mcu_fd_sc_mcu7t5v0__dlyd_1
*CAP
1 tl_i[67] 0.000721213
2 *9532:I 0.000721213
3 *9532:I *9379:I0 4.0496e-05
4 *9532:I *9379:I1 0.00200839
5 *9532:I *9432:D 0.000304779
6 *9532:I *9474:I 0.000408224
7 *9532:I *9536:I 0.00150668
8 *9532:I *9543:I 0.000807653
9 *9532:I *514:14 0.000113354
10 *9479:I *9532:I 3.41801e-05
*RES
1 tl_i[67] *9532:I 26.078 
*END

*D_NET *87 0.00595734
*CONN
*P tl_i[68] I
*I *9533:I I *D gf180mcu_fd_sc_mcu7t5v0__dlyd_1
*CAP
1 tl_i[68] 0.000547334
2 *9533:I 0.000547334
3 *9533:I tl_o[10] 0.00111815
4 *9533:I tl_o[20] 9.97567e-05
5 *9533:I tl_o[26] 5.87561e-06
6 *9533:I tl_o[4] 0.000962088
7 *9533:I tl_o[54] 0.00128455
8 *9533:I *9536:I 0.00040998
9 *9533:I *380:63 0.000775943
10 *9480:I *9533:I 0.000206333
*RES
1 tl_i[68] *9533:I 23.266 
*END

*D_NET *88 0.00978713
*CONN
*P tl_i[69] I
*I *9534:I I *D gf180mcu_fd_sc_mcu7t5v0__dlyd_1
*CAP
1 tl_i[69] 0.000985408
2 *9534:I 0.000985408
3 *9534:I tl_o[21] 0.000426367
4 *9534:I tl_o[22] 0.00187543
5 *9534:I tl_o[5] 0.000106406
6 *9534:I tl_o[60] 0.000308927
7 *9534:I tl_o[62] 0.00242248
8 *9534:I *9538:I 7.83779e-05
9 *9534:I *9539:I 0.000308927
10 *9484:I *9534:I 2.3367e-05
11 *9527:I *9534:I 0
12 *9531:I *9534:I 0.00226604
*RES
1 tl_i[69] *9534:I 29.042 
*END

*D_NET *90 0.00852727
*CONN
*P tl_i[70] I
*I *9535:I I *D gf180mcu_fd_sc_mcu7t5v0__dlyd_1
*CAP
1 tl_i[70] 0.00158409
2 *9535:I 0.00158409
3 *9535:I tl_o[3] 0.000279623
4 *9535:I tl_o[51] 0.00173566
5 *9535:I tl_o[5] 2.54562e-05
6 *9535:I tl_o[60] 8.86847e-05
7 *9535:I *9258:A2 1.40518e-05
8 *9535:I *9261:A2 6.04444e-06
9 *9535:I *9261:A3 0.000109376
10 *9535:I *9380:I1 0.000112483
11 *9535:I *9380:S 5.01486e-05
12 *9535:I *9437:D 0.000125819
13 *9535:I *9437:CLK 0.000358152
14 *9535:I *9537:I 0.00066987
15 *9535:I *422:20 0.000129715
16 *9535:I *516:10 6.71845e-05
17 *9480:I *9535:I 0.00087642
18 *9527:I *9535:I 1.72856e-05
19 *9529:I *9535:I 0.000632425
20 *9542:I *9535:I 6.06919e-05
*RES
1 tl_i[70] *9535:I 30.562 
*END

*D_NET *91 0.00883982
*CONN
*P tl_i[71] I
*I *9536:I I *D gf180mcu_fd_sc_mcu7t5v0__dlyd_1
*CAP
1 tl_i[71] 0.00138459
2 *9536:I 0.00138459
3 *9536:I tl_o[26] 7.38322e-05
4 *9536:I tl_o[49] 0.000547845
5 *9536:I *9254:A2 9.64611e-05
6 *9536:I *9255:A2 0.00114711
7 *9536:I *9378:I0 0.000129907
8 *9536:I *9378:I1 0.000640891
9 *9536:I *9379:I0 0.000181705
10 *9536:I *9432:D 0.000304779
11 *9536:I *9540:I 7.31511e-05
12 *9536:I *420:14 2.65969e-05
13 *9536:I *514:14 0.000698686
14 *9532:I *9536:I 0.00150668
15 *9533:I *9536:I 0.00040998
16 *9544:I *9536:I 0.000233011
*RES
1 tl_i[71] *9536:I 31.17 
*END

*D_NET *92 0.00977275
*CONN
*P tl_i[72] I
*I *9537:I I *D gf180mcu_fd_sc_mcu7t5v0__dlyd_1
*CAP
1 tl_i[72] 0.00145583
2 *9537:I 0.00145583
3 *9537:I tl_o[0] 0.00022466
4 *9537:I tl_o[3] 2.65701e-05
5 *9537:I *9258:A2 1.59984e-05
6 *9537:I *9258:B2 7.24887e-06
7 *9537:I *9261:A3 1.11891e-05
8 *9537:I *9345:I1 0.000826327
9 *9537:I *9395:A2 0.000366024
10 *9537:I *9395:B 0.000215464
11 *9537:I *9538:I 0.000768167
12 *9537:I *9539:I 0.000542943
13 *9537:I *9592:I 0.000308079
14 *9537:I *9595:I 0.000108555
15 *9537:I *9646:I 0.00195833
16 *9537:I *416:14 1.95806e-05
17 *9537:I *420:14 0.000126305
18 *9525:I *9537:I 0.000665768
19 *9535:I *9537:I 0.00066987
*RES
1 tl_i[72] *9537:I 32.234 
*END

*D_NET *93 0.00694054
*CONN
*P tl_i[73] I
*I *9538:I I *D gf180mcu_fd_sc_mcu7t5v0__dlyd_1
*CAP
1 tl_i[73] 0.00138243
2 *9538:I 0.00138243
3 *9538:I tl_o[0] 4.39413e-05
4 *9538:I *9258:B2 4.03922e-06
5 *9538:I *9259:B1 0.000142194
6 *9538:I *9380:I1 0
7 *9538:I *9380:S 0
8 *9538:I *9434:D 0.000132976
9 *9538:I *9437:CLK 8.74341e-05
10 *9538:I *9593:I 0.000496517
11 *9538:I *416:14 0.00118101
12 *9538:I *422:31 0.000285375
13 *9538:I *513:24 0
14 *9538:I *516:48 0.000555867
15 *9484:I *9538:I 0.000219563
16 *9525:I *9538:I 2.63526e-05
17 *9527:I *9538:I 0.000153875
18 *9534:I *9538:I 7.83779e-05
19 *9537:I *9538:I 0.000768167
*RES
1 tl_i[73] *9538:I 28.434 
*END

*D_NET *94 0.00818304
*CONN
*P tl_i[74] I
*I *9539:I I *D gf180mcu_fd_sc_mcu7t5v0__dlyd_1
*CAP
1 tl_i[74] 0.00126409
2 *9539:I 0.00126409
3 *9539:I tl_o[0] 3.57546e-05
4 *9539:I tl_o[5] 0.000350952
5 *9539:I tl_o[60] 0.000119025
6 *9539:I tl_o[62] 0.000328701
7 *9539:I *9226:A1 0.000572358
8 *9539:I *9226:A2 0.000535376
9 *9539:I *9380:I0 0.000179609
10 *9539:I *9474:I 0.000139247
11 *9539:I *393:14 0.000486402
12 *9539:I *408:51 2.03955e-05
13 *9539:I *416:14 0.000272636
14 *9539:I *420:14 6.47993e-06
15 *9539:I *422:85 8.69558e-05
16 *9484:I *9539:I 0.00166399
17 *9534:I *9539:I 0.000308927
18 *9537:I *9539:I 0.000542943
19 *9542:I *9539:I 5.09739e-06
*RES
1 tl_i[74] *9539:I 29.346 
*END

*D_NET *119 0.00848677
*CONN
*P tl_i[97] I
*I *9540:I I *D gf180mcu_fd_sc_mcu7t5v0__dlyd_1
*CAP
1 tl_i[97] 0.00118913
2 *9540:I 0.00118913
3 *9540:I *9248:A3 2.79905e-06
4 *9540:I *9378:I0 0.00141633
5 *9540:I *9384:I0 0.000323392
6 *9540:I *412:64 0.000190299
7 *9540:I *421:41 6.23271e-05
8 *9540:I *512:16 0.000611956
9 *9540:I *514:14 0.000135201
10 *9540:I *613:22 0.00010515
11 *9477:I *9540:I 0.0015969
12 *9536:I *9540:I 7.31511e-05
13 *9544:I *9540:I 0.00159101
*RES
1 tl_i[97] *9540:I 30.486 
*END

*D_NET *120 0.00287261
*CONN
*P tl_i[98] I
*I *9541:I I *D gf180mcu_fd_sc_mcu7t5v0__dlyd_1
*CAP
1 tl_i[98] 0.000183406
2 *9541:I 0.000183406
3 *9541:I tl_o[26] 0.00143765
4 *9541:I tl_o[52] 0.000945401
5 *9541:I tl_o[54] 0.000122747
*RES
1 tl_i[98] *9541:I 10.466 
*END

*D_NET *121 0.00437634
*CONN
*P tl_i[99] I
*I *9543:I I *D gf180mcu_fd_sc_mcu7t5v0__dlyd_1
*CAP
1 tl_i[99] 0.000991604
2 *9543:I 0.000991604
3 *9543:I tl_o[14] 6.06975e-05
4 *9543:I *9258:B2 5.37329e-06
5 *9543:I *9261:A2 9.57351e-05
6 *9543:I *9439:CLK 0.000107173
7 *9543:I *380:63 6.48268e-05
8 *9479:I *9543:I 0.000807653
9 *9529:I *9543:I 0.000105105
10 *9532:I *9543:I 0.000807653
11 *3:40 *9543:I 0.000338919
*RES
1 tl_i[99] *9543:I 32.342 
*END

*D_NET *123 0.00721994
*CONN
*P tl_o[0] O
*I *9586:Z O *D gf180mcu_fd_sc_mcu7t5v0__dlyd_1
*CAP
1 tl_o[0] 0.00128641
2 *9586:Z 0.00128641
3 tl_o[0] tl_o[60] 0.000588734
4 tl_o[0] *9130:I 0
5 tl_o[0] *9226:A2 0.00141302
6 tl_o[0] *9259:B1 1.15275e-05
7 tl_o[0] *9259:B2 0.000240496
8 tl_o[0] *9345:I1 0.00013242
9 tl_o[0] *9395:B 0.000152946
10 tl_o[0] *9553:I 1.20079e-05
11 tl_o[0] *9592:I 5.49848e-05
12 tl_o[0] *408:14 0.000248677
13 tl_o[0] *408:25 0.000458241
14 tl_o[0] *408:51 3.49701e-05
15 tl_o[0] *416:14 0.000182527
16 tl_o[0] *420:14 0.000215402
17 tl_o[0] *441:34 2.78502e-05
18 *9527:I tl_o[0] 0.000568959
19 *9537:I tl_o[0] 0.00022466
20 *9538:I tl_o[0] 4.39413e-05
21 *9539:I tl_o[0] 3.57546e-05
*RES
1 *9586:Z tl_o[0] 28.13 
*END

*D_NET *124 0.00698526
*CONN
*P tl_o[10] O
*I *9620:ZN O *D gf180mcu_fd_sc_mcu7t5v0__tiel
*CAP
1 tl_o[10] 0.00199227
2 *9620:ZN 0.00199227
3 tl_o[10] tl_o[26] 0.000390205
4 *9481:I tl_o[10] 0.00149236
5 *9533:I tl_o[10] 0.00111815
*RES
1 *9620:ZN tl_o[10] 37.89 
*END

*D_NET *125 0.00188242
*CONN
*P tl_o[11] O
*I *9621:ZN O *D gf180mcu_fd_sc_mcu7t5v0__tiel
*CAP
1 tl_o[11] 0.000535017
2 *9621:ZN 0.000535017
3 tl_o[11] tl_o[59] 0.000812383
*RES
1 *9621:ZN tl_o[11] 10.01 
*END

*D_NET *126 0.0133831
*CONN
*P tl_o[12] O
*I *9622:ZN O *D gf180mcu_fd_sc_mcu7t5v0__tiel
*CAP
1 tl_o[12] 0.0010734
2 *9622:ZN 0.0010734
3 tl_o[12] tl_o[13] 5.69191e-05
4 tl_o[12] tl_o[24] 0.000344764
5 tl_o[12] tl_o[48] 4.6818e-05
6 tl_o[12] tl_o[63] 0.00785567
7 tl_o[12] tl_o[65] 0.000722399
8 tl_o[12] *9361:I0 4.74709e-05
9 *9487:I tl_o[12] 0.00172444
10 *9501:I tl_o[12] 0.000355628
11 *9509:I tl_o[12] 8.22328e-05
*RES
1 *9622:ZN tl_o[12] 38.314 
*END

*D_NET *127 0.0110956
*CONN
*P tl_o[13] O
*I *9623:ZN O *D gf180mcu_fd_sc_mcu7t5v0__tiel
*CAP
1 tl_o[13] 0.00126738
2 *9623:ZN 0.00126738
3 tl_o[13] tl_o[41] 0.00105217
4 tl_o[13] tl_o[63] 0.00114127
5 tl_o[13] tl_o[65] 1.50699e-05
6 tl_o[13] *9216:A1 1.11891e-05
7 tl_o[13] *9219:A2 0.000512533
8 tl_o[13] *9222:A1 6.49038e-05
9 tl_o[13] *9357:I1 0.00020516
10 tl_o[13] *9361:I0 0.00076662
11 tl_o[13] *9581:I 3.19219e-05
12 tl_o[13] *9598:I 0.00113055
13 tl_o[13] *375:94 0
14 tl_o[13] *448:20 0.000104693
15 tl_o[13] *608:10 0.000214589
16 tl_o[12] tl_o[13] 5.69191e-05
17 *9486:I tl_o[13] 0.00243657
18 *9520:I tl_o[13] 0.000816688
*RES
1 *9623:ZN tl_o[13] 38.542 
*END

*D_NET *128 0.0116818
*CONN
*P tl_o[14] O
*I *9624:ZN O *D gf180mcu_fd_sc_mcu7t5v0__tiel
*CAP
1 tl_o[14] 0.00330444
2 *9624:ZN 0.00330444
3 tl_o[14] tl_o[20] 0.00161382
4 tl_o[14] *9231:A1 0.00032464
5 tl_o[14] *9231:A2 0.000108891
6 tl_o[14] *9236:A2 0.000493324
7 tl_o[14] *9241:B1 0.00027273
8 tl_o[14] *9245:B 2.05156e-05
9 tl_o[14] *9257:B1 8.06713e-05
10 tl_o[14] *9258:A1 0.000462809
11 tl_o[14] *9258:B2 3.02664e-05
12 tl_o[14] *9261:A2 3.17618e-05
13 tl_o[14] *9311:A2 1.51823e-05
14 tl_o[14] *9450:CLK 5.95354e-05
15 tl_o[14] *9470:I 0.000115689
16 tl_o[14] *9580:I 0.000100426
17 tl_o[14] *9655:I 7.28527e-06
18 tl_o[14] *9665:I 0.000201537
19 tl_o[14] *369:18 0
20 tl_o[14] *370:14 2.06707e-06
21 tl_o[14] *380:207 9.37296e-06
22 tl_o[14] *438:33 0.000144964
23 tl_o[14] *449:32 0.000378809
24 *9529:I tl_o[14] 0.000118699
25 *9530:I tl_o[14] 2.9846e-05
26 *9543:I tl_o[14] 6.06975e-05
27 *3:40 tl_o[14] 0.000389405
*RES
1 *9624:ZN tl_o[14] 46.478 
*END

*D_NET *129 0.00174687
*CONN
*P tl_o[15] O
*I *9625:ZN O *D gf180mcu_fd_sc_mcu7t5v0__tiel
*CAP
1 tl_o[15] 0.000873437
2 *9625:ZN 0.000873437
*RES
1 *9625:ZN tl_o[15] 10.466 
*END

*D_NET *130 0.00348945
*CONN
*P tl_o[16] O
*I *9587:Z O *D gf180mcu_fd_sc_mcu7t5v0__dlyd_1
*CAP
1 tl_o[16] 0.00110391
2 *9587:Z 0.00110391
3 tl_o[16] tl_o[18] 0.00122837
4 tl_o[16] tl_o[7] 0
5 tl_o[16] *9590:I 5.3266e-05
*RES
1 *9587:Z tl_o[16] 22.658 
*END

*D_NET *131 0.00216064
*CONN
*P tl_o[17] O
*I *9588:Z O *D gf180mcu_fd_sc_mcu7t5v0__dlyd_1
*CAP
1 tl_o[17] 0.00108032
2 *9588:Z 0.00108032
3 tl_o[17] tl_o[19] 0
*RES
1 *9588:Z tl_o[17] 11.302 
*END

*D_NET *132 0.00310704
*CONN
*P tl_o[18] O
*I *9589:Z O *D gf180mcu_fd_sc_mcu7t5v0__dlyd_1
*CAP
1 tl_o[18] 0.000674278
2 *9589:Z 0.000674278
3 tl_o[18] tl_o[19] 0
4 tl_o[18] tl_o[7] 0.000530109
5 tl_o[16] tl_o[18] 0.00122837
*RES
1 *9589:Z tl_o[18] 20.834 
*END

*D_NET *133 0.002833
*CONN
*P tl_o[19] O
*I *9590:Z O *D gf180mcu_fd_sc_mcu7t5v0__dlyd_1
*CAP
1 tl_o[19] 0.0014165
2 *9590:Z 0.0014165
3 tl_o[17] tl_o[19] 0
4 tl_o[18] tl_o[19] 0
*RES
1 *9590:Z tl_o[19] 22.886 
*END

*D_NET *134 0.00265162
*CONN
*P tl_o[1] O
*I *9591:Z O *D gf180mcu_fd_sc_mcu7t5v0__dlyd_1
*CAP
1 tl_o[1] 0.000202143
2 *9591:Z 0.000202143
3 *9485:I tl_o[1] 0.00126105
4 *9489:I tl_o[1] 0.000986284
*RES
1 *9591:Z tl_o[1] 10.314 
*END

*D_NET *135 0.00666948
*CONN
*P tl_o[20] O
*I *9592:Z O *D gf180mcu_fd_sc_mcu7t5v0__dlyd_1
*CAP
1 tl_o[20] 0.000934842
2 *9592:Z 0.000934842
3 tl_o[20] tl_o[21] 0.000330145
4 tl_o[20] tl_o[54] 0.000265099
5 tl_o[20] *9130:I 0.000292079
6 tl_o[20] *9258:B1 0.00157956
7 tl_o[20] *9258:B2 0.000203975
8 tl_o[20] *9260:A2 3.25235e-05
9 tl_o[20] *248:8 7.57767e-05
10 tl_o[20] *380:57 7.5179e-05
11 tl_o[20] *380:63 0.000118457
12 tl_o[20] *405:6 8.04285e-05
13 tl_o[14] tl_o[20] 0.00161382
14 *9529:I tl_o[20] 3.14861e-06
15 *9530:I tl_o[20] 2.9846e-05
16 *9533:I tl_o[20] 9.97567e-05
*RES
1 *9592:Z tl_o[20] 17.382 
*END

*D_NET *136 0.0068687
*CONN
*P tl_o[21] O
*I *9593:Z O *D gf180mcu_fd_sc_mcu7t5v0__dlyd_1
*CAP
1 tl_o[21] 0.000546084
2 *9593:Z 0.000546084
3 tl_o[21] tl_o[3] 0.00144454
4 tl_o[21] tl_o[51] 0.000912352
5 tl_o[21] tl_o[54] 0.000330145
6 tl_o[21] tl_o[5] 0.000561633
7 tl_o[20] tl_o[21] 0.000330145
8 *9480:I tl_o[21] 0.000344182
9 *9484:I tl_o[21] 5.44937e-05
10 *9530:I tl_o[21] 0.000247575
11 *9534:I tl_o[21] 0.000426367
12 *9542:I tl_o[21] 0.00106665
13 *3:40 tl_o[21] 5.84574e-05
*RES
1 *9593:Z tl_o[21] 25.09 
*END

*D_NET *137 0.00707578
*CONN
*P tl_o[22] O
*I *9594:Z O *D gf180mcu_fd_sc_mcu7t5v0__dlyd_1
*CAP
1 tl_o[22] 0.00113894
2 *9594:Z 0.00113894
3 tl_o[22] tl_o[51] 9.95706e-05
4 tl_o[22] tl_o[62] 0.00230602
5 tl_o[22] *9230:A2 4.25064e-05
6 tl_o[22] *9233:A1 6.63508e-06
7 tl_o[22] *405:31 8.04285e-05
8 tl_o[22] *516:10 4.02962e-05
9 *9497:I tl_o[22] 0.000347016
10 *9534:I tl_o[22] 0.00187543
*RES
1 *9594:Z tl_o[22] 17.534 
*END

*D_NET *138 0.00588564
*CONN
*P tl_o[23] O
*I *9595:Z O *D gf180mcu_fd_sc_mcu7t5v0__dlyd_1
*CAP
1 tl_o[23] 0.000595414
2 *9595:Z 0.000595414
3 tl_o[23] tl_o[4] 0.00181925
4 tl_o[23] *393:14 5.0825e-05
5 tl_o[23] *420:14 0.0006423
6 *9480:I tl_o[23] 0.000390205
7 *9545:I tl_o[23] 0.00179223
*RES
1 *9595:Z tl_o[23] 24.254 
*END

*D_NET *139 0.0102986
*CONN
*P tl_o[24] O
*I *9596:Z O *D gf180mcu_fd_sc_mcu7t5v0__dlyd_1
*CAP
1 tl_o[24] 0.00133808
2 *9596:Z 0.00133808
3 tl_o[24] tl_o[25] 0.000400991
4 tl_o[24] tl_o[65] 2.13641e-05
5 tl_o[24] *9214:A1 0.00150546
6 tl_o[24] *9219:A2 0.000209085
7 tl_o[24] *9221:A1 0.00192043
8 tl_o[24] *9248:A3 3.88698e-05
9 tl_o[24] *9252:A1 0.000457008
10 tl_o[24] *9254:A1 0.0002205
11 tl_o[24] *9282:A1 0.000151957
12 tl_o[24] *9387:A1 0.000290785
13 tl_o[24] *9389:S 2.96621e-05
14 tl_o[24] *329:12 0.00117198
15 tl_o[24] *329:26 0.000151146
16 tl_o[24] *375:94 8.00093e-06
17 tl_o[24] *594:161 0.000143041
18 tl_o[12] tl_o[24] 0.000344764
19 *9476:I tl_o[24] 0.000482882
20 *9509:I tl_o[24] 7.45322e-05
*RES
1 *9596:Z tl_o[24] 31.246 
*END

*D_NET *140 0.0106906
*CONN
*P tl_o[25] O
*I *9597:Z O *D gf180mcu_fd_sc_mcu7t5v0__dlyd_1
*CAP
1 tl_o[25] 0.00161458
2 *9597:Z 0.00161458
3 tl_o[25] tl_o[58] 0.00048925
4 tl_o[25] tl_o[65] 0.000100023
5 tl_o[25] *9219:A2 0.000201947
6 tl_o[25] *9221:A1 0.00118221
7 tl_o[25] *9252:A2 4.47134e-05
8 tl_o[25] *9255:A1 6.70994e-06
9 tl_o[25] *9255:A2 2.96621e-05
10 tl_o[25] *9263:A2 0.000325923
11 tl_o[25] *9283:A1 0.000444428
12 tl_o[25] *9385:I0 0.000505852
13 tl_o[25] *9442:D 2.03987e-05
14 tl_o[25] *9578:I 0.000501732
15 tl_o[25] *594:161 0.000169167
16 tl_o[25] *613:22 0.000266873
17 tl_o[24] tl_o[25] 0.000400991
18 *9476:I tl_o[25] 0.00255258
19 *9499:I tl_o[25] 0.000218938
*RES
1 *9597:Z tl_o[25] 31.854 
*END

*D_NET *141 0.00487187
*CONN
*P tl_o[26] O
*I *9598:Z O *D gf180mcu_fd_sc_mcu7t5v0__dlyd_1
*CAP
1 tl_o[26] 0.000906987
2 *9598:Z 0.000906987
3 tl_o[26] tl_o[54] 0.000342978
4 tl_o[26] *9215:A1 0.000117531
5 tl_o[26] *9378:I0 0.000116847
6 tl_o[26] *9379:I0 0.000130065
7 tl_o[26] *9468:I 0.000442912
8 tl_o[10] tl_o[26] 0.000390205
9 *9533:I tl_o[26] 5.87561e-06
10 *9536:I tl_o[26] 7.38322e-05
11 *9541:I tl_o[26] 0.00143765
*RES
1 *9598:Z tl_o[26] 15.634 
*END

*D_NET *142 0.0052025
*CONN
*P tl_o[27] O
*I *9599:Z O *D gf180mcu_fd_sc_mcu7t5v0__dlyd_1
*CAP
1 tl_o[27] 0.000801587
2 *9599:Z 0.000801587
3 tl_o[27] tl_o[56] 0.000465634
4 tl_o[27] tl_o[57] 0.00165552
5 tl_o[27] *9254:A2 0
6 tl_o[27] *9591:I 8.51219e-05
7 tl_o[27] *412:31 0.000197154
8 tl_o[27] *559:24 0.000103663
9 *9477:I tl_o[27] 0.000875242
10 *9485:I tl_o[27] 0.000216988
*RES
1 *9599:Z tl_o[27] 24.558 
*END

*D_NET *143 0.00303533
*CONN
*P tl_o[28] O
*I *9600:Z O *D gf180mcu_fd_sc_mcu7t5v0__dlyd_1
*CAP
1 tl_o[28] 0.00103696
2 *9600:Z 0.00103696
3 tl_o[28] tl_o[29] 0.000638514
4 tl_o[28] tl_o[30] 9.38262e-05
5 tl_o[28] tl_o[31] 0.000229075
*RES
1 *9600:Z tl_o[28] 21.898 
*END

*D_NET *144 0.00365466
*CONN
*P tl_o[29] O
*I *9601:Z O *D gf180mcu_fd_sc_mcu7t5v0__dlyd_1
*CAP
1 tl_o[29] 0.00107444
2 *9601:Z 0.00107444
3 tl_o[29] tl_o[31] 0.000867269
4 tl_o[28] tl_o[29] 0.000638514
*RES
1 *9601:Z tl_o[29] 22.582 
*END

*D_NET *145 0.00788476
*CONN
*P tl_o[2] O
*I *9615:ZN O *D gf180mcu_fd_sc_mcu7t5v0__tiel
*CAP
1 tl_o[2] 0.00160721
2 *9615:ZN 0.00160721
3 *9483:I tl_o[2] 7.00774e-06
4 *9496:I tl_o[2] 0.00123173
5 *9531:I tl_o[2] 0
6 *3:14 tl_o[2] 0.0034316
*RES
1 *9615:ZN tl_o[2] 34.59 
*END

*D_NET *146 0.00211673
*CONN
*P tl_o[30] O
*I *9602:Z O *D gf180mcu_fd_sc_mcu7t5v0__dlyd_1
*CAP
1 tl_o[30] 0.00101145
2 *9602:Z 0.00101145
3 tl_o[28] tl_o[30] 9.38262e-05
*RES
1 *9602:Z tl_o[30] 11.302 
*END

*D_NET *147 0.00324411
*CONN
*P tl_o[31] O
*I *9603:Z O *D gf180mcu_fd_sc_mcu7t5v0__dlyd_1
*CAP
1 tl_o[31] 0.00107388
2 *9603:Z 0.00107388
3 tl_o[28] tl_o[31] 0.000229075
4 tl_o[29] tl_o[31] 0.000867269
*RES
1 *9603:Z tl_o[31] 13.43 
*END

*D_NET *148 0.00294292
*CONN
*P tl_o[32] O
*I *9604:Z O *D gf180mcu_fd_sc_mcu7t5v0__dlyd_1
*CAP
1 tl_o[32] 0.000833795
2 *9604:Z 0.000833795
3 tl_o[32] tl_o[35] 6.4464e-05
4 tl_o[32] tl_o[36] 0.00121086
*RES
1 *9604:Z tl_o[32] 16.258 
*END

*D_NET *149 0.000944377
*CONN
*P tl_o[33] O
*I *9605:Z O *D gf180mcu_fd_sc_mcu7t5v0__dlyd_1
*CAP
1 tl_o[33] 0.000248324
2 *9605:Z 0.000248324
3 tl_o[33] tl_o[37] 0.000447729
*RES
1 *9605:Z tl_o[33] 11.546 
*END

*D_NET *150 0.00252485
*CONN
*P tl_o[34] O
*I *9606:Z O *D gf180mcu_fd_sc_mcu7t5v0__dlyd_1
*CAP
1 tl_o[34] 0.000304565
2 *9606:Z 0.000304565
3 tl_o[34] tl_o[36] 0.00112064
4 tl_o[34] tl_o[37] 0.000795082
*RES
1 *9606:Z tl_o[34] 14.13 
*END

*D_NET *151 0.00231108
*CONN
*P tl_o[35] O
*I *9607:Z O *D gf180mcu_fd_sc_mcu7t5v0__dlyd_1
*CAP
1 tl_o[35] 0.0010881
2 *9607:Z 0.0010881
3 tl_o[35] tl_o[36] 7.04111e-05
4 tl_o[35] tl_o[37] 0
5 tl_o[35] *9604:I 0
6 tl_o[32] tl_o[35] 6.4464e-05
*RES
1 *9607:Z tl_o[35] 16.334 
*END

*D_NET *152 0.00344595
*CONN
*P tl_o[36] O
*I *9608:Z O *D gf180mcu_fd_sc_mcu7t5v0__dlyd_1
*CAP
1 tl_o[36] 0.000522017
2 *9608:Z 0.000522017
3 tl_o[32] tl_o[36] 0.00121086
4 tl_o[34] tl_o[36] 0.00112064
5 tl_o[35] tl_o[36] 7.04111e-05
*RES
1 *9608:Z tl_o[36] 15.878 
*END

*D_NET *153 0.00159008
*CONN
*P tl_o[37] O
*I *9609:Z O *D gf180mcu_fd_sc_mcu7t5v0__dlyd_1
*CAP
1 tl_o[37] 0.000173636
2 *9609:Z 0.000173636
3 tl_o[33] tl_o[37] 0.000447729
4 tl_o[34] tl_o[37] 0.000795082
5 tl_o[35] tl_o[37] 0
*RES
1 *9609:Z tl_o[37] 12.458 
*END

*D_NET *154 0.00302098
*CONN
*P tl_o[38] O
*I *9610:Z O *D gf180mcu_fd_sc_mcu7t5v0__dlyd_1
*CAP
1 tl_o[38] 0.000969453
2 *9610:Z 0.000969453
3 *9513:I tl_o[38] 0.00108207
*RES
1 *9610:Z tl_o[38] 13.05 
*END

*D_NET *155 0.00228434
*CONN
*P tl_o[39] O
*I *9611:Z O *D gf180mcu_fd_sc_mcu7t5v0__dlyd_1
*CAP
1 tl_o[39] 0.00114217
2 *9611:Z 0.00114217
*RES
1 *9611:Z tl_o[39] 11.91 
*END

*D_NET *156 0.00859886
*CONN
*P tl_o[3] O
*I *9612:Z O *D gf180mcu_fd_sc_mcu7t5v0__dlyd_1
*CAP
1 tl_o[3] 0.00255414
2 *9612:Z 0.00255414
3 tl_o[3] tl_o[5] 0.000279623
4 tl_o[3] *9395:B 0.00018513
5 tl_o[21] tl_o[3] 0.00144454
6 *9484:I tl_o[3] 0.000337041
7 *9535:I tl_o[3] 0.000279623
8 *9537:I tl_o[3] 2.65701e-05
9 *9542:I tl_o[3] 0.000789823
10 *3:40 tl_o[3] 0.000148236
*RES
1 *9612:Z tl_o[3] 40.398 
*END

*D_NET *157 0.00565989
*CONN
*P tl_o[40] O
*I *9613:Z O *D gf180mcu_fd_sc_mcu7t5v0__dlyd_1
*CAP
1 tl_o[40] 0.00109068
2 *9613:Z 0.00109068
3 tl_o[40] tl_o[55] 3.14443e-05
4 tl_o[40] *9438:D 0.000521524
5 tl_o[40] *9599:I 0.00183052
6 tl_o[40] *375:94 0.000122483
7 tl_o[40] *559:24 0.000241881
8 tl_o[40] *610:14 0.000585903
9 *9486:I tl_o[40] 0.000144776
*RES
1 *9613:Z tl_o[40] 24.558 
*END

*D_NET *158 0.00616852
*CONN
*P tl_o[41] O
*I *9614:Z O *D gf180mcu_fd_sc_mcu7t5v0__dlyd_1
*CAP
1 tl_o[41] 0.000630503
2 *9614:Z 0.000630503
3 tl_o[41] tl_o[63] 0.000576423
4 tl_o[41] *380:8 0.00107579
5 tl_o[41] *448:20 0.00142418
6 tl_o[13] tl_o[41] 0.00105217
7 *9500:I tl_o[41] 0.000297257
8 *9501:I tl_o[41] 0.000481688
*RES
1 *9614:Z tl_o[41] 24.938 
*END

*D_NET *159 0.000937101
*CONN
*P tl_o[42] O
*I *9566:Z O *D gf180mcu_fd_sc_mcu7t5v0__dlyd_1
*CAP
1 tl_o[42] 0.000357356
2 *9566:Z 0.000357356
3 tl_o[42] tl_o[46] 0.000222388
*RES
1 *9566:Z tl_o[42] 11.8934 
*END

*D_NET *160 0.00153324
*CONN
*P tl_o[43] O
*I *9567:Z O *D gf180mcu_fd_sc_mcu7t5v0__dlyd_1
*CAP
1 tl_o[43] 0.000434129
2 *9567:Z 0.000434129
3 tl_o[43] tl_o[44] 0.000424937
4 tl_o[43] tl_o[45] 0.000209155
5 tl_o[43] tl_o[46] 3.08902e-05
*RES
1 *9567:Z tl_o[43] 13.1854 
*END

*D_NET *161 0.00179973
*CONN
*P tl_o[44] O
*I *9568:Z O *D gf180mcu_fd_sc_mcu7t5v0__dlyd_1
*CAP
1 tl_o[44] 0.000428034
2 *9568:Z 0.000428034
3 tl_o[44] tl_o[45] 6.18717e-05
4 tl_o[44] tl_o[46] 0.000456858
5 tl_o[43] tl_o[44] 0.000424937
*RES
1 *9568:Z tl_o[44] 13.7174 
*END

*D_NET *162 0.00148053
*CONN
*P tl_o[45] O
*I *9569:Z O *D gf180mcu_fd_sc_mcu7t5v0__dlyd_1
*CAP
1 tl_o[45] 0.000604754
2 *9569:Z 0.000604754
3 tl_o[43] tl_o[45] 0.000209155
4 tl_o[44] tl_o[45] 6.18717e-05
*RES
1 *9569:Z tl_o[45] 13.4134 
*END

*D_NET *163 0.00113012
*CONN
*P tl_o[46] O
*I *9570:Z O *D gf180mcu_fd_sc_mcu7t5v0__dlyd_1
*CAP
1 tl_o[46] 0.000209994
2 *9570:Z 0.000209994
3 tl_o[42] tl_o[46] 0.000222388
4 tl_o[43] tl_o[46] 3.08902e-05
5 tl_o[44] tl_o[46] 0.000456858
*RES
1 *9570:Z tl_o[46] 11.8934 
*END

*D_NET *164 0.00122507
*CONN
*P tl_o[47] O
*I *9571:Z O *D gf180mcu_fd_sc_mcu7t5v0__dlyd_1
*CAP
1 tl_o[47] 0.000612535
2 *9571:Z 0.000612535
*RES
1 *9571:Z tl_o[47] 12.8814 
*END

*D_NET *165 0.00649647
*CONN
*P tl_o[48] O
*I *9626:ZN O *D gf180mcu_fd_sc_mcu7t5v0__tiel
*CAP
1 tl_o[48] 0.00257899
2 *9626:ZN 0.00257899
3 tl_o[12] tl_o[48] 4.6818e-05
4 *9488:I tl_o[48] 0
5 *9498:I tl_o[48] 0.000526711
6 *9509:I tl_o[48] 0.000764966
*RES
1 *9626:ZN tl_o[48] 34.742 
*END

*D_NET *166 0.00718036
*CONN
*P tl_o[49] O
*I *9572:Z O *D gf180mcu_fd_sc_mcu7t5v0__dlyd_1
*CAP
1 tl_o[49] 0.000843733
2 *9572:Z 0.000843733
3 tl_o[49] tl_o[50] 0.000117765
4 tl_o[49] tl_o[56] 0.00044275
5 tl_o[49] *9250:A3 0.001216
6 tl_o[49] *9254:A2 0.00040294
7 tl_o[49] *9474:I 0.000214579
8 tl_o[49] *9639:I 1.6747e-05
9 tl_o[49] *295:20 0.00057828
10 *9498:I tl_o[49] 6.75674e-05
11 *9536:I tl_o[49] 0.000547845
12 *9544:I tl_o[49] 0.00188842
*RES
1 *9572:Z tl_o[49] 27.598 
*END

*D_NET *167 0.0127011
*CONN
*P tl_o[4] O
*I *9616:ZN O *D gf180mcu_fd_sc_mcu7t5v0__tiel
*CAP
1 tl_o[4] 0.00154574
2 *9616:ZN 0.00154574
3 tl_o[4] tl_o[54] 0.000402666
4 tl_o[4] *9134:A1 1.55387e-05
5 tl_o[4] *9227:A2 2.80879e-05
6 tl_o[4] *9234:A2 0.000586342
7 tl_o[4] *9236:A2 0.000134125
8 tl_o[4] *9239:B2 0.000279211
9 tl_o[4] *9249:A1 1.60964e-05
10 tl_o[4] *9249:A2 0.000123184
11 tl_o[4] *9450:CLK 9.92577e-05
12 tl_o[4] *9470:I 1.15134e-05
13 tl_o[4] *369:18 0.000980135
14 tl_o[4] *370:14 0.000100136
15 tl_o[4] *380:57 0.000449997
16 tl_o[4] *380:63 0.000713634
17 tl_o[4] *380:88 0.000172721
18 tl_o[4] *594:32 0.00023599
19 tl_o[4] *594:83 0.000267556
20 tl_o[4] *595:33 0.000345839
21 tl_o[23] tl_o[4] 0.00181925
22 *9480:I tl_o[4] 0.000390205
23 *9533:I tl_o[4] 0.000962088
24 *9545:I tl_o[4] 0.00147608
*RES
1 *9616:ZN tl_o[4] 35.958 
*END

*D_NET *168 0.00915016
*CONN
*P tl_o[50] O
*I *9573:Z O *D gf180mcu_fd_sc_mcu7t5v0__dlyd_1
*CAP
1 tl_o[50] 0.00114354
2 *9573:Z 0.00114354
3 tl_o[50] tl_o[53] 5.05392e-05
4 tl_o[50] tl_o[64] 0.00338677
5 tl_o[50] tl_o[6] 0.00133209
6 tl_o[50] *9235:A1 0.000216865
7 tl_o[50] *9282:A1 4.04886e-05
8 tl_o[50] *9474:I 0.000214579
9 tl_o[50] *9580:I 6.07958e-06
10 tl_o[50] *9639:I 0.000107657
11 tl_o[50] *471:10 0.00139025
12 tl_o[49] tl_o[50] 0.000117765
*RES
1 *9573:Z tl_o[50] 29.878 
*END

*D_NET *169 0.00863258
*CONN
*P tl_o[51] O
*I *9574:Z O *D gf180mcu_fd_sc_mcu7t5v0__dlyd_1
*CAP
1 tl_o[51] 0.000739602
2 *9574:Z 0.000739602
3 tl_o[51] tl_o[60] 4.18914e-05
4 tl_o[51] tl_o[62] 0.000611401
5 tl_o[51] *9437:D 9.10106e-05
6 tl_o[51] *9437:CLK 0.000138879
7 tl_o[51] *516:10 0.000433885
8 tl_o[21] tl_o[51] 0.000912352
9 tl_o[22] tl_o[51] 9.95706e-05
10 *9482:I tl_o[51] 0.000934538
11 *9497:I tl_o[51] 0.000360218
12 *9530:I tl_o[51] 0.00144934
13 *9531:I tl_o[51] 5.25524e-05
14 *9535:I tl_o[51] 0.00173566
15 *9542:I tl_o[51] 0.000292084
*RES
1 *9574:Z tl_o[51] 28.434 
*END

*D_NET *170 0.00491678
*CONN
*P tl_o[52] O
*I *9575:Z O *D gf180mcu_fd_sc_mcu7t5v0__dlyd_1
*CAP
1 tl_o[52] 0.000319753
2 *9575:Z 0.000319753
3 tl_o[52] tl_o[54] 0.00128615
4 tl_o[52] *9224:A2 0.000591216
5 tl_o[52] *9262:B 8.29629e-06
6 *9489:I tl_o[52] 0.00144621
7 *9541:I tl_o[52] 0.000945401
*RES
1 *9575:Z tl_o[52] 13.506 
*END

*D_NET *171 0.00927189
*CONN
*P tl_o[53] O
*I *9576:Z O *D gf180mcu_fd_sc_mcu7t5v0__dlyd_1
*CAP
1 tl_o[53] 0.00113394
2 *9576:Z 0.00113394
3 tl_o[53] tl_o[55] 0.000532682
4 tl_o[53] tl_o[58] 0.000250963
5 tl_o[53] tl_o[6] 2.87145e-05
6 tl_o[53] *9247:A1 3.83477e-05
7 tl_o[53] *9250:A3 0.000976761
8 tl_o[53] *9255:A2 4.75255e-05
9 tl_o[53] *9255:B 0.000285856
10 tl_o[53] *9387:A2 2.23783e-05
11 tl_o[53] *9390:S 0.000121276
12 tl_o[53] *9439:D 3.10687e-05
13 tl_o[53] *9572:I 0.00108603
14 tl_o[53] *9580:I 0.000384603
15 tl_o[53] *9581:I 0.000118665
16 tl_o[53] *308:12 2.47727e-05
17 tl_o[53] *329:26 0.000776533
18 tl_o[53] *471:10 0.000284506
19 tl_o[53] *475:16 9.72158e-05
20 tl_o[53] *611:12 3.73627e-05
21 tl_o[53] *613:22 5.7261e-06
22 tl_o[50] tl_o[53] 5.05392e-05
23 *9528:I tl_o[53] 0.00180248
*RES
1 *9576:Z tl_o[53] 29.802 
*END

*D_NET *172 0.0107175
*CONN
*P tl_o[54] O
*I *9577:Z O *D gf180mcu_fd_sc_mcu7t5v0__dlyd_1
*CAP
1 tl_o[54] 0.00182487
2 *9577:Z 0.00182487
3 tl_o[54] *9215:A1 0.000288612
4 tl_o[54] *9223:A1 0.000351478
5 tl_o[54] *9224:A2 0.000354108
6 tl_o[54] *9258:B2 9.27021e-05
7 tl_o[54] *9262:B 6.84149e-05
8 tl_o[54] *9378:I0 0.000254734
9 tl_o[54] *9379:I0 0.000167481
10 tl_o[54] *9379:I1 0.000254316
11 tl_o[54] *9439:CLK 0.000114891
12 tl_o[54] *9468:I 2.11302e-05
13 tl_o[54] *256:12 0.000761797
14 tl_o[54] *375:72 8.94484e-05
15 tl_o[54] *380:63 5.18299e-05
16 tl_o[54] *404:14 0
17 tl_o[20] tl_o[54] 0.000265099
18 tl_o[21] tl_o[54] 0.000330145
19 tl_o[26] tl_o[54] 0.000342978
20 tl_o[4] tl_o[54] 0.000402666
21 tl_o[52] tl_o[54] 0.00128615
22 *9479:I tl_o[54] 6.35847e-05
23 *9533:I tl_o[54] 0.00128455
24 *9541:I tl_o[54] 0.000122747
25 *9545:I tl_o[54] 9.89156e-05
*RES
1 *9577:Z tl_o[54] 34.514 
*END

*D_NET *173 0.00596497
*CONN
*P tl_o[55] O
*I *9578:Z O *D gf180mcu_fd_sc_mcu7t5v0__dlyd_1
*CAP
1 tl_o[55] 0.00166813
2 *9578:Z 0.00166813
3 tl_o[55] tl_o[58] 0.000524991
4 tl_o[55] *9436:CLK 0.000139333
5 tl_o[40] tl_o[55] 3.14443e-05
6 tl_o[53] tl_o[55] 0.000532682
7 *9476:I tl_o[55] 0.00032652
8 *9486:I tl_o[55] 9.37576e-05
9 *9487:I tl_o[55] 0.000937516
10 *9498:I tl_o[55] 4.24678e-05
*RES
1 *9578:Z tl_o[55] 29.498 
*END

*D_NET *174 0.00799673
*CONN
*P tl_o[56] O
*I *9579:Z O *D gf180mcu_fd_sc_mcu7t5v0__dlyd_1
*CAP
1 tl_o[56] 0.000974219
2 *9579:Z 0.000974219
3 tl_o[56] tl_o[6] 2.65844e-05
4 tl_o[56] *9254:A2 0.00061178
5 tl_o[56] *9382:I0 9.42493e-05
6 tl_o[56] *9599:I 0.000204046
7 tl_o[56] *9640:I 0
8 tl_o[56] *375:94 0
9 tl_o[56] *393:14 5.94709e-06
10 tl_o[56] *412:31 0.000424097
11 tl_o[56] *475:16 2.9536e-05
12 tl_o[56] *559:24 0.000232274
13 tl_o[56] *594:146 0
14 tl_o[56] *610:14 5.87824e-05
15 tl_o[27] tl_o[56] 0.000465634
16 tl_o[49] tl_o[56] 0.00044275
17 *9478:I tl_o[56] 0.00125469
18 *9498:I tl_o[56] 5.9876e-05
19 *9528:I tl_o[56] 0.00213804
*RES
1 *9579:Z tl_o[56] 28.206 
*END

*D_NET *175 0.00604669
*CONN
*P tl_o[57] O
*I *9580:Z O *D gf180mcu_fd_sc_mcu7t5v0__dlyd_1
*CAP
1 tl_o[57] 0.000490796
2 *9580:Z 0.000490796
3 tl_o[57] *9262:B 0.000112373
4 tl_o[57] *9439:CLK 0.000199473
5 tl_o[27] tl_o[57] 0.00165552
6 *9477:I tl_o[57] 0.00195094
7 *9485:I tl_o[57] 0.00114679
*RES
1 *9580:Z tl_o[57] 24.254 
*END

*D_NET *176 0.00947401
*CONN
*P tl_o[58] O
*I *9581:Z O *D gf180mcu_fd_sc_mcu7t5v0__dlyd_1
*CAP
1 tl_o[58] 0.00112515
2 *9581:Z 0.00112515
3 tl_o[58] tl_o[63] 5.79329e-05
4 tl_o[58] *9283:A1 0.000292354
5 tl_o[58] *9385:I0 0.000171713
6 tl_o[58] *9385:I1 0.000235767
7 tl_o[58] *9439:D 8.41113e-05
8 tl_o[58] *9474:I 0.00106913
9 tl_o[58] *9475:I 0.000731424
10 tl_o[58] *9573:I 0.0007555
11 tl_o[58] *9580:I 0.000273671
12 tl_o[58] *9581:I 0.000193889
13 tl_o[58] *9639:I 2.57782e-05
14 tl_o[58] *421:41 0.000333432
15 tl_o[58] *421:54 0.000221419
16 tl_o[58] *421:79 0.000137785
17 tl_o[58] *475:16 0.000320646
18 tl_o[58] *594:129 0.00036947
19 tl_o[58] *613:22 3.83835e-06
20 tl_o[25] tl_o[58] 0.00048925
21 tl_o[53] tl_o[58] 0.000250963
22 tl_o[55] tl_o[58] 0.000524991
23 *9487:I tl_o[58] 0.000642556
24 *9520:I tl_o[58] 3.80852e-05
*RES
1 *9581:Z tl_o[58] 30.638 
*END

*D_NET *177 0.00199308
*CONN
*P tl_o[59] O
*I *9627:ZN O *D gf180mcu_fd_sc_mcu7t5v0__tiel
*CAP
1 tl_o[59] 0.000590351
2 *9627:ZN 0.000590351
3 tl_o[59] tl_o[9] 0
4 tl_o[11] tl_o[59] 0.000812383
*RES
1 *9627:ZN tl_o[59] 10.466 
*END

*D_NET *178 0.00625042
*CONN
*P tl_o[5] O
*I *9582:Z O *D gf180mcu_fd_sc_mcu7t5v0__dlyd_1
*CAP
1 tl_o[5] 0.00100878
2 *9582:Z 0.00100878
3 tl_o[5] tl_o[62] 8.17277e-05
4 tl_o[5] tl_o[8] 0.000379242
5 tl_o[5] *9226:A2 0.00019843
6 tl_o[5] *9380:I0 0.000354616
7 tl_o[5] *408:6 7.98484e-05
8 tl_o[5] *408:51 0.000509706
9 tl_o[5] *416:14 0.00016398
10 tl_o[21] tl_o[5] 0.000561633
11 tl_o[3] tl_o[5] 0.000279623
12 *9480:I tl_o[5] 3.73535e-05
13 *9484:I tl_o[5] 6.05988e-05
14 *9527:I tl_o[5] 0
15 *9530:I tl_o[5] 0.000135795
16 *9534:I tl_o[5] 0.000106406
17 *9535:I tl_o[5] 2.54562e-05
18 *9539:I tl_o[5] 0.000350952
19 *9542:I tl_o[5] 0.0009075
*RES
1 *9582:Z tl_o[5] 26.154 
*END

*D_NET *179 0.0146874
*CONN
*P tl_o[60] O
*I *9628:ZN O *D gf180mcu_fd_sc_mcu7t5v0__tiel
*CAP
1 tl_o[60] 0.00120339
2 *9628:ZN 0.00120339
3 tl_o[60] *9217:A2 0.000609642
4 tl_o[60] *9280:A1 3.30388e-05
5 tl_o[60] *438:12 8.17271e-05
6 tl_o[60] *606:8 3.25336e-05
7 tl_o[0] tl_o[60] 0.000588734
8 tl_o[51] tl_o[60] 4.18914e-05
9 *9482:I tl_o[60] 0.00011561
10 *9483:I tl_o[60] 0.00580737
11 *9527:I tl_o[60] 0.0044534
12 *9534:I tl_o[60] 0.000308927
13 *9535:I tl_o[60] 8.86847e-05
14 *9539:I tl_o[60] 0.000119025
*RES
1 *9628:ZN tl_o[60] 36.642 
*END

*D_NET *180 0.00163621
*CONN
*P tl_o[61] O
*I *9629:ZN O *D gf180mcu_fd_sc_mcu7t5v0__tiel
*CAP
1 tl_o[61] 0.000818103
2 *9629:ZN 0.000818103
*RES
1 *9629:ZN tl_o[61] 10.01 
*END

*D_NET *181 0.00907113
*CONN
*P tl_o[62] O
*I *9583:Z O *D gf180mcu_fd_sc_mcu7t5v0__dlyd_1
*CAP
1 tl_o[62] 0.000931862
2 *9583:Z 0.000931862
3 tl_o[22] tl_o[62] 0.00230602
4 tl_o[51] tl_o[62] 0.000611401
5 tl_o[5] tl_o[62] 8.17277e-05
6 *9497:I tl_o[62] 0.00111812
7 *9527:I tl_o[62] 0
8 *9534:I tl_o[62] 0.00242248
9 *9539:I tl_o[62] 0.000328701
10 *9542:I tl_o[62] 0.000338957
*RES
1 *9583:Z tl_o[62] 28.51 
*END

*D_NET *182 0.0162113
*CONN
*P tl_o[63] O
*I *9630:ZN O *D gf180mcu_fd_sc_mcu7t5v0__tiel
*CAP
1 tl_o[63] 0.000543937
2 *9630:ZN 0.000543937
3 tl_o[63] *9216:A1 3.89716e-05
4 tl_o[12] tl_o[63] 0.00785567
5 tl_o[13] tl_o[63] 0.00114127
6 tl_o[41] tl_o[63] 0.000576423
7 tl_o[58] tl_o[63] 5.79329e-05
8 *9486:I tl_o[63] 0.0037632
9 *9487:I tl_o[63] 0.000758394
10 *9501:I tl_o[63] 0.000186796
11 *9520:I tl_o[63] 0.000744738
*RES
1 *9630:ZN tl_o[63] 38.618 
*END

*D_NET *183 0.00788196
*CONN
*P tl_o[64] O
*I *9631:ZN O *D gf180mcu_fd_sc_mcu7t5v0__tiel
*CAP
1 tl_o[64] 0.000838097
2 *9631:ZN 0.000838097
3 tl_o[64] *9235:A1 1.44832e-05
4 tl_o[64] *9235:A2 0.000637183
5 tl_o[64] *9249:A2 0.000135941
6 tl_o[64] *9263:A2 2.71301e-05
7 tl_o[64] *9393:S 5.33446e-05
8 tl_o[64] *9598:I 0.000101357
9 tl_o[64] *295:20 0.000154166
10 tl_o[64] *393:14 0.000387712
11 tl_o[64] *471:10 0
12 tl_o[50] tl_o[64] 0.00338677
13 *9478:I tl_o[64] 0.000206333
14 *9526:I tl_o[64] 0.00110135
*RES
1 *9631:ZN tl_o[64] 27.294 
*END

*D_NET *184 0.00838079
*CONN
*P tl_o[65] O
*I *9584:Z O *D gf180mcu_fd_sc_mcu7t5v0__dlyd_1
*CAP
1 tl_o[65] 0.00176994
2 *9584:Z 0.00176994
3 tl_o[65] *9214:A1 0
4 tl_o[65] *9216:A2 5.4811e-06
5 tl_o[65] *9222:A2 0.000177992
6 tl_o[65] *9250:A3 0.000118659
7 tl_o[65] *9283:A1 0.000235767
8 tl_o[65] *9283:A2 0.000174107
9 tl_o[65] *9382:I0 0.000386742
10 tl_o[65] *9385:I0 0.000124188
11 tl_o[65] *9385:S 5.14116e-06
12 tl_o[65] *9391:S 0.000582664
13 tl_o[65] *9639:I 0.000195642
14 tl_o[65] *295:24 0.000614659
15 tl_o[65] *375:94 0.000444214
16 tl_o[65] *594:129 0.000154453
17 tl_o[12] tl_o[65] 0.000722399
18 tl_o[13] tl_o[65] 1.50699e-05
19 tl_o[24] tl_o[65] 2.13641e-05
20 tl_o[25] tl_o[65] 0.000100023
21 *9486:I tl_o[65] 0.000759784
22 *9520:I tl_o[65] 2.57058e-06
*RES
1 *9584:Z tl_o[65] 30.714 
*END

*D_NET *185 0.0100306
*CONN
*P tl_o[6] O
*I *9617:ZN O *D gf180mcu_fd_sc_mcu7t5v0__tiel
*CAP
1 tl_o[6] 0.00201771
2 *9617:ZN 0.00201771
3 tl_o[6] *9221:A1 4.62206e-05
4 tl_o[6] *9248:A2 3.31536e-05
5 tl_o[6] *9253:A1 0.000185185
6 tl_o[6] *9254:A1 0.000374126
7 tl_o[6] *9436:CLK 7.83321e-05
8 tl_o[6] *9599:I 8.35118e-05
9 tl_o[6] *9640:I 0.00013273
10 tl_o[6] *412:64 7.10235e-05
11 tl_o[6] *421:19 0.000170317
12 tl_o[6] *474:19 0.000131994
13 tl_o[6] *475:16 0.000158878
14 tl_o[6] *559:24 0.000170415
15 tl_o[50] tl_o[6] 0.00133209
16 tl_o[53] tl_o[6] 2.87145e-05
17 tl_o[56] tl_o[6] 2.65844e-05
18 *9499:I tl_o[6] 0
19 *9520:I tl_o[6] 0.00162712
20 *9526:I tl_o[6] 0.000149576
21 *9528:I tl_o[6] 0.0011952
*RES
1 *9617:ZN tl_o[6] 36.034 
*END

*D_NET *186 0.00275857
*CONN
*P tl_o[7] O
*I *9585:Z O *D gf180mcu_fd_sc_mcu7t5v0__dlyd_1
*CAP
1 tl_o[7] 0.00111423
2 *9585:Z 0.00111423
3 tl_o[7] *9329:I1 0
4 tl_o[16] tl_o[7] 0
5 tl_o[18] tl_o[7] 0.000530109
*RES
1 *9585:Z tl_o[7] 12.366 
*END

*D_NET *187 0.0161194
*CONN
*P tl_o[8] O
*I *9618:ZN O *D gf180mcu_fd_sc_mcu7t5v0__tiel
*CAP
1 tl_o[8] 0.00128612
2 *9618:ZN 0.00128612
3 tl_o[8] *9213:A1 0.0004318
4 tl_o[8] *9233:A1 0.000675789
5 tl_o[8] *9233:A2 0.000236903
6 tl_o[8] *9244:B 0.000396528
7 tl_o[8] *9261:A4 0.00537592
8 tl_o[8] *9291:A2 0.000307335
9 tl_o[8] *9374:I1 2.35525e-05
10 tl_o[8] *9582:I 4.17348e-05
11 tl_o[8] *304:18 0.000231262
12 tl_o[8] *332:18 0.000102407
13 tl_o[8] *407:22 2.71882e-05
14 tl_o[8] *513:49 0.00020108
15 tl_o[8] *514:14 0.000203749
16 tl_o[8] *514:21 0.00105183
17 tl_o[8] *514:48 0.000530464
18 tl_o[5] tl_o[8] 0.000379242
19 *9480:I tl_o[8] 0.000208417
20 *9525:I tl_o[8] 0.00305328
21 *3:50 tl_o[8] 6.86845e-05
*RES
1 *9618:ZN tl_o[8] 38.542 
*END

*D_NET *188 0.00174687
*CONN
*P tl_o[9] O
*I *9619:ZN O *D gf180mcu_fd_sc_mcu7t5v0__tiel
*CAP
1 tl_o[9] 0.000873437
2 *9619:ZN 0.000873437
3 tl_o[59] tl_o[9] 0
*RES
1 *9619:ZN tl_o[9] 10.466 
*END

*D_NET *189 0.044239
*CONN
*I *9632:WEN[7] I *D gf180mcu_fd_ip_sram__sram256x8m8wm1
*I *9632:WEN[6] I *D gf180mcu_fd_ip_sram__sram256x8m8wm1
*I *9632:WEN[5] I *D gf180mcu_fd_ip_sram__sram256x8m8wm1
*I *9632:WEN[4] I *D gf180mcu_fd_ip_sram__sram256x8m8wm1
*I *9632:WEN[3] I *D gf180mcu_fd_ip_sram__sram256x8m8wm1
*I *9632:WEN[2] I *D gf180mcu_fd_ip_sram__sram256x8m8wm1
*I *9632:WEN[1] I *D gf180mcu_fd_ip_sram__sram256x8m8wm1
*I *9632:WEN[0] I *D gf180mcu_fd_ip_sram__sram256x8m8wm1
*I *9272:A3 I *D gf180mcu_fd_sc_mcu7t5v0__nor3_2
*I *9271:ZN O *D gf180mcu_fd_sc_mcu7t5v0__nand2_1
*CAP
1 *9632:WEN[7] 0.000398109
2 *9632:WEN[6] 1.98784e-05
3 *9632:WEN[5] 3.09115e-05
4 *9632:WEN[4] 5.46878e-05
5 *9632:WEN[3] 5.77612e-05
6 *9632:WEN[2] 2.34241e-05
7 *9632:WEN[1] 2.71862e-05
8 *9632:WEN[0] 0.00196373
9 *9272:A3 0.0010525
10 *9271:ZN 0.000159329
11 *189:54 0.00210469
12 *189:52 0.00226985
13 *189:46 0.00396292
14 *189:44 0.00641349
15 *189:40 0.00569975
16 *189:38 0.00109823
17 *189:34 0.000656297
18 *189:28 0.00186444
19 *9272:A3 *9340:A1 0
20 *9272:A3 *9343:A2 0.000943478
21 *9272:A3 *9577:I 7.33578e-06
22 *9272:A3 *9651:I 0.00102706
23 *9272:A3 *9665:I 0.000133308
24 *9272:A3 *328:12 8.52185e-05
25 *9272:A3 *371:8 5.20571e-05
26 *9272:A3 *372:18 6.23713e-06
27 *9272:A3 *423:8 0.000308225
28 *9272:A3 *463:12 3.32983e-05
29 *9632:WEN[7] *9213:A1 0.000886814
30 *9632:WEN[7] *9342:A1 0
31 *9632:WEN[7] *9582:I 0.000137785
32 *9632:WEN[7] *9632:D[7] 0
33 *9632:WEN[7] *332:18 0
34 *9632:WEN[7] *378:182 0.000192419
35 *9632:WEN[7] *402:26 0.000258073
36 *9632:WEN[7] *407:22 0.00282872
37 *9632:WEN[6] *9632:D[6] 2.61392e-05
38 *9632:WEN[5] *9632:D[5] 2.61392e-05
39 *9632:WEN[4] *9330:A1 0
40 *9632:WEN[4] *9632:D[4] 8.833e-06
41 *9632:WEN[3] *9326:A1 0
42 *9632:WEN[3] *9632:D[3] 5.81781e-05
43 *9632:WEN[2] *9632:D[2] 2.61392e-05
44 *9632:WEN[1] *9632:D[1] 3.76625e-05
45 *9632:WEN[0] *9314:A1 0
46 *9632:WEN[0] *9632:D[0] 0
47 *189:28 *9653:I 3.67237e-05
48 *189:28 *9657:I 9.50578e-06
49 *189:28 *371:8 3.81596e-05
50 *189:28 *402:26 9.56533e-05
51 *189:34 *9632:D[6] 2.91799e-05
52 *189:34 *9632:D[5] 0
53 *189:34 *332:18 0
54 *189:34 *407:22 0.00273129
55 *189:38 *407:22 0.00012053
56 *189:40 *407:22 0.00284437
57 *189:44 *407:22 0.00319956
58 *189:44 *407:26 3.24134e-05
59 *189:44 *458:24 8.06713e-05
60 *189:44 *463:18 8.06713e-05
*RES
1 *9271:ZN *9272:A3 21.724 
2 *9272:A3 *189:28 14.244 
3 *189:28 *189:34 11.644 
4 *189:34 *189:38 5.184 
5 *189:38 *189:40 13.756 
6 *189:40 *189:44 40.204 
7 *189:44 *189:46 12.616 
8 *189:46 *189:52 14.516 
9 *189:52 *189:54 0.684 
10 *189:54 *9632:WEN[0] 18.446 
11 *189:54 *9632:WEN[1] 4.842 
12 *189:52 *9632:WEN[2] 4.842 
13 *189:46 *9632:WEN[3] 4.994 
14 *189:40 *9632:WEN[4] 4.842 
15 *189:38 *9632:WEN[5] 4.842 
16 *189:34 *9632:WEN[6] 0.342 
17 *189:28 *9632:WEN[7] 12.366 
*END

*D_NET *190 0.0561603
*CONN
*I *9633:WEN[0] I *D gf180mcu_fd_ip_sram__sram256x8m8wm1
*I *9633:WEN[7] I *D gf180mcu_fd_ip_sram__sram256x8m8wm1
*I *9633:WEN[6] I *D gf180mcu_fd_ip_sram__sram256x8m8wm1
*I *9633:WEN[5] I *D gf180mcu_fd_ip_sram__sram256x8m8wm1
*I *9633:WEN[4] I *D gf180mcu_fd_ip_sram__sram256x8m8wm1
*I *9633:WEN[3] I *D gf180mcu_fd_ip_sram__sram256x8m8wm1
*I *9633:WEN[2] I *D gf180mcu_fd_ip_sram__sram256x8m8wm1
*I *9633:WEN[1] I *D gf180mcu_fd_ip_sram__sram256x8m8wm1
*I *9282:A3 I *D gf180mcu_fd_sc_mcu7t5v0__nor3_2
*I *9281:ZN O *D gf180mcu_fd_sc_mcu7t5v0__nand2_1
*CAP
1 *9633:WEN[0] 8.32257e-05
2 *9633:WEN[7] 0.00205819
3 *9633:WEN[6] 2.95037e-05
4 *9633:WEN[5] 3.09115e-05
5 *9633:WEN[4] 5.88102e-05
6 *9633:WEN[3] 9.0564e-05
7 *9633:WEN[2] 3.99144e-05
8 *9633:WEN[1] 4.74018e-05
9 *9282:A3 0.000494989
10 *9281:ZN 0.000502689
11 *190:81 0.0022065
12 *190:71 0.00212009
13 *190:61 0.0059738
14 *190:57 0.00497617
15 *190:45 0.00215782
16 *190:33 0.00111643
17 *190:23 0.000317162
18 *190:19 0.000385409
19 *190:10 0.00107092
20 *9282:A3 *9282:A1 0.0001321
21 *9282:A3 *9346:A1 0
22 *9282:A3 *9633:D[0] 0
23 *9633:WEN[7] *9142:A1 0
24 *9633:WEN[7] *9633:D[7] 8.833e-06
25 *9633:WEN[6] *9633:D[6] 1.94732e-05
26 *9633:WEN[5] *9633:D[5] 2.61392e-05
27 *9633:WEN[4] *9362:A1 0
28 *9633:WEN[3] *9633:D[3] 9.94346e-05
29 *9633:WEN[2] *9633:D[2] 4.68346e-05
30 *9633:WEN[1] *9633:D[1] 4.68346e-05
31 *9633:WEN[0] *9346:A1 0
32 *9633:WEN[0] *9633:D[0] 0
33 *190:10 *9138:A1 0
34 *190:10 *9580:I 0.000103833
35 *190:10 *448:61 0.00278097
36 *190:10 *686:27 1.36298e-05
37 *190:19 *9633:D[0] 0
38 *190:23 *9350:A1 0.000141363
39 *190:23 *448:61 0.00470966
40 *190:23 *686:27 0.00561599
41 *190:33 *9350:A1 3.71904e-05
42 *190:33 *686:27 0.000272143
43 *190:45 *686:27 0.00589833
44 *190:57 *686:27 0.00147069
45 *190:57 *686:29 0.00146707
46 *190:61 *686:29 0.00950929
*RES
1 *9281:ZN *190:10 20.416 
2 *190:10 *9282:A3 7.616 
3 *190:10 *190:19 0.38 
4 *190:19 *190:23 18.256 
5 *190:23 *9633:WEN[1] 4.994 
6 *190:23 *190:33 0.684 
7 *190:33 *9633:WEN[2] 4.994 
8 *190:33 *190:45 14.44 
9 *190:45 *9633:WEN[3] 5.146 
10 *190:45 *190:57 13.756 
11 *190:57 *190:61 39.292 
12 *190:61 *9633:WEN[4] 4.842 
13 *190:61 *190:71 13.756 
14 *190:71 *9633:WEN[5] 4.842 
15 *190:71 *190:81 0.684 
16 *190:81 *9633:WEN[6] 4.842 
17 *190:81 *9633:WEN[7] 18.446 
18 *190:19 *9633:WEN[0] 0.494 
*END

*D_NET *191 0.0335774
*CONN
*I *9292:A3 I *D gf180mcu_fd_sc_mcu7t5v0__nor3_4
*I *9565:I I *D gf180mcu_fd_sc_mcu7t5v0__clkbuf_8
*I *9291:ZN O *D gf180mcu_fd_sc_mcu7t5v0__nand2_2
*CAP
1 *9292:A3 0.00103849
2 *9565:I 0.0021139
3 *9291:ZN 0.000627674
4 *191:10 0.0107286
5 *191:8 0.0102809
6 *9292:A3 *9292:A1 0.00155391
7 *9292:A3 *261:10 0.000989983
8 *9292:A3 *453:14 0.000285437
9 *9565:I *261:10 0
10 *191:8 *9376:I1 6.77492e-05
11 *191:8 *9398:D 0.000310303
12 *191:10 *9146:A1 0.0012139
13 *191:10 *9146:A2 3.25336e-05
14 *191:10 *9376:I0 0
15 *191:10 *261:10 0
16 *191:10 *379:6 8.22324e-05
17 *191:10 *379:21 0.00175705
18 *9455:I *191:10 1.63786e-05
19 *3:50 *191:8 0.000355464
20 *3:50 *191:10 0
21 *3:54 *191:10 0.00176644
22 *3:61 *191:10 0.000356546
*RES
1 *9291:ZN *191:8 9.668 
2 *191:8 *191:10 69.008 
3 *191:10 *9565:I 10.96 
4 *9565:I *9292:A3 31.072 
*END

*D_NET *192 0.0514246
*CONN
*I *9302:A3 I *D gf180mcu_fd_sc_mcu7t5v0__nor3_4
*I *9564:I I *D gf180mcu_fd_sc_mcu7t5v0__buf_4
*I *9301:ZN O *D gf180mcu_fd_sc_mcu7t5v0__nand2_2
*CAP
1 *9302:A3 0
2 *9564:I 0.00150541
3 *9301:ZN 0.000349769
4 *192:10 0.00392544
5 *192:8 0.0027698
6 *192:8 *9179:A2 0.000359219
7 *192:8 *9377:I0 0.000404264
8 *192:8 *412:45 4.10312e-05
9 *192:8 *648:89 0.000344199
10 *192:10 *9180:A1 0.000320447
11 *192:10 *9183:I1 0.00378269
12 *192:10 *278:10 0.000599869
13 *192:10 *278:23 0.00301309
14 *192:10 *278:25 0.0154424
15 *192:10 *412:45 0.000149982
16 *192:10 *414:10 0.0075115
17 *192:10 *414:17 0.00946019
18 *192:10 *439:35 0.000287657
19 *192:10 *439:37 0.00115763
*RES
1 *9301:ZN *192:8 9.212 
2 *192:8 *192:10 74.1 
3 *192:10 *9564:I 38.8216 
4 *192:10 *9302:A3 4.5 
*END

*D_NET *193 0.00103241
*CONN
*I *9396:D I *D gf180mcu_fd_sc_mcu7t5v0__dffq_1
*I *9374:Z O *D gf180mcu_fd_sc_mcu7t5v0__mux2_2
*CAP
1 *9396:D 0.000413825
2 *9374:Z 0.000413825
3 *9396:D *9128:I 0.000134564
4 *9396:D *514:69 7.01996e-05
*RES
1 *9374:Z *9396:D 12.116 
*END

*D_NET *194 0.00170685
*CONN
*I *9397:D I *D gf180mcu_fd_sc_mcu7t5v0__dffq_1
*I *9375:Z O *D gf180mcu_fd_sc_mcu7t5v0__mux2_2
*CAP
1 *9397:D 0.000360478
2 *9375:Z 0.000360478
3 *9397:D *9267:A2 0.000317494
4 *9397:D *9267:A3 0.000376901
5 *9397:D *9397:CLK 0
6 *9397:D *375:72 0.000257917
7 *9397:D *449:84 3.35867e-05
*RES
1 *9375:Z *9397:D 12.648 
*END

*D_NET *195 0.000858342
*CONN
*I *9398:D I *D gf180mcu_fd_sc_mcu7t5v0__dffq_1
*I *9376:Z O *D gf180mcu_fd_sc_mcu7t5v0__mux2_2
*CAP
1 *9398:D 0.00027402
2 *9376:Z 0.00027402
3 *9398:D *9376:I0 0
4 *191:8 *9398:D 0.000310303
*RES
1 *9376:Z *9398:D 11.28 
*END

*D_NET *196 0.00168709
*CONN
*I *9399:D I *D gf180mcu_fd_sc_mcu7t5v0__dffq_1
*I *9377:Z O *D gf180mcu_fd_sc_mcu7t5v0__mux2_2
*CAP
1 *9399:D 0.000454544
2 *9377:Z 0.000454544
3 *9399:D *375:72 0.000366552
4 *9399:D *438:76 6.77492e-05
5 *9399:D *449:84 0.000317494
6 *9399:D *460:164 2.62062e-05
*RES
1 *9377:Z *9399:D 21.952 
*END

*D_NET *197 0.00616336
*CONN
*I *9400:D I *D gf180mcu_fd_sc_mcu7t5v0__dffq_1
*I *9317:I0 I *D gf180mcu_fd_sc_mcu7t5v0__mux2_2
*I *9316:ZN O *D gf180mcu_fd_sc_mcu7t5v0__nand2_1
*CAP
1 *9400:D 0
2 *9317:I0 0.0014145
3 *9316:ZN 0.000391389
4 *197:10 0.00180588
5 *9317:I0 *9315:A2 8.54388e-05
6 *9317:I0 *9319:A1 2.20893e-05
7 *9317:I0 *9400:CLK 0.00140414
8 *9317:I0 *9587:I 0
9 *9317:I0 *198:12 0.000140953
10 *9317:I0 *410:12 0.000228523
11 *197:10 *9315:A1 0.000557104
12 *197:10 *9315:A2 0.000113344
13 *197:10 *9324:A1 0
*RES
1 *9316:ZN *197:10 12.8 
2 *197:10 *9317:I0 20.324 
3 *197:10 *9400:D 9 
*END

*D_NET *198 0.00470762
*CONN
*I *9321:I0 I *D gf180mcu_fd_sc_mcu7t5v0__mux2_2
*I *9401:D I *D gf180mcu_fd_sc_mcu7t5v0__dffq_1
*I *9320:ZN O *D gf180mcu_fd_sc_mcu7t5v0__nand2_1
*CAP
1 *9321:I0 0.00101423
2 *9401:D 0
3 *9320:ZN 0.000952098
4 *198:12 0.00196633
5 *9321:I0 *9321:I1 0
6 *9321:I0 *9321:S 4.41641e-06
7 *9321:I0 *9329:I0 0
8 *9321:I0 *378:12 6.81137e-05
9 *9321:I0 *378:14 3.89111e-05
10 *9321:I0 *451:16 0
11 *198:12 *9319:A1 0.000254643
12 *198:12 *9323:A1 5.87561e-06
13 *198:12 *9324:A2 0.000165002
14 *198:12 *9400:CLK 4.94618e-05
15 *198:12 *378:14 4.75767e-05
16 *198:12 *451:16 0
17 *9317:I0 *198:12 0.000140953
*RES
1 *9320:ZN *198:12 16.372 
2 *198:12 *9401:D 9 
3 *198:12 *9321:I0 15.536 
*END

*D_NET *199 0.00613867
*CONN
*I *9325:I0 I *D gf180mcu_fd_sc_mcu7t5v0__mux2_2
*I *9402:D I *D gf180mcu_fd_sc_mcu7t5v0__dffq_1
*I *9324:ZN O *D gf180mcu_fd_sc_mcu7t5v0__nand2_1
*CAP
1 *9325:I0 0.00114379
2 *9402:D 0
3 *9324:ZN 0.000113642
4 *199:10 0.00125743
5 *9325:I0 *9325:S 6.82399e-05
6 *9325:I0 *9327:A1 0.000111867
7 *9325:I0 *9400:CLK 3.26862e-05
8 *9325:I0 *9401:CLK 2.72272e-05
9 *9325:I0 *9402:CLK 0
10 *9325:I0 *200:10 0.000319859
11 *9325:I0 *378:14 4.51389e-05
12 *9325:I0 *424:33 0.000671334
13 *9325:I0 *424:39 0.00033338
14 *199:10 *9315:A2 0.000916714
15 *199:10 *9323:A1 0.000641859
16 *199:10 *9324:A1 8.05328e-06
17 *199:10 *9324:A2 9.57657e-05
18 *199:10 *9400:CLK 0.000103459
19 *199:10 *424:39 0.000248226
*RES
1 *9324:ZN *199:10 12.8 
2 *199:10 *9402:D 9 
3 *199:10 *9325:I0 17.664 
*END

*D_NET *200 0.00514747
*CONN
*I *9329:I0 I *D gf180mcu_fd_sc_mcu7t5v0__mux2_2
*I *9403:D I *D gf180mcu_fd_sc_mcu7t5v0__dffq_1
*I *9328:ZN O *D gf180mcu_fd_sc_mcu7t5v0__nand2_1
*CAP
1 *9329:I0 0.000925576
2 *9403:D 0
3 *9328:ZN 0.000320845
4 *200:10 0.00124642
5 *9329:I0 *9321:I1 0.000434724
6 *9329:I0 *378:12 0.000310758
7 *9329:I0 *424:31 3.02683e-05
8 *200:10 *9402:CLK 0
9 *200:10 *378:12 0.000977764
10 *200:10 *378:14 0.000460427
11 *200:10 *424:31 5.94709e-05
12 *200:10 *424:33 6.13559e-05
13 *9321:I0 *9329:I0 0
14 *9325:I0 *200:10 0.000319859
*RES
1 *9328:ZN *200:10 13.408 
2 *200:10 *9403:D 9 
3 *200:10 *9329:I0 15.232 
*END

*D_NET *201 0.00568904
*CONN
*I *9333:I0 I *D gf180mcu_fd_sc_mcu7t5v0__mux2_2
*I *9404:D I *D gf180mcu_fd_sc_mcu7t5v0__dffq_1
*I *9332:ZN O *D gf180mcu_fd_sc_mcu7t5v0__nand2_1
*CAP
1 *9333:I0 0.000668931
2 *9404:D 0.000121301
3 *9332:ZN 0.000477529
4 *201:10 0.00126776
5 *9333:I0 *9230:A1 0
6 *9333:I0 *9336:A1 6.55118e-05
7 *9333:I0 *9337:I0 2.96621e-05
8 *9333:I0 *9339:A1 0.000106366
9 *9333:I0 *9394:A2 0.000317373
10 *9333:I0 *203:12 0
11 *9333:I0 *328:12 0.000184938
12 *9333:I0 *328:20 0
13 *9333:I0 *372:18 0.000336498
14 *9333:I0 *411:12 0.000653985
15 *9333:I0 *449:16 0.000927753
16 *9333:I0 *594:32 8.96975e-05
17 *9404:D *9336:A1 4.58601e-06
18 *9404:D *9632:D[6] 4.03623e-05
19 *201:10 *9331:A1 5.3266e-05
20 *201:10 *9336:A1 5.07376e-05
21 *201:10 *9339:A1 3.37485e-05
22 *201:10 *9632:D[5] 0.000113209
23 *201:10 *9650:I 0
24 *201:10 *328:22 0
25 *201:10 *378:71 0.000145829
*RES
1 *9332:ZN *201:10 12.952 
2 *201:10 *9404:D 9.684 
3 *201:10 *9333:I0 17.056 
*END

*D_NET *202 0.00696247
*CONN
*I *9405:D I *D gf180mcu_fd_sc_mcu7t5v0__dffq_1
*I *9337:I0 I *D gf180mcu_fd_sc_mcu7t5v0__mux2_2
*I *9336:ZN O *D gf180mcu_fd_sc_mcu7t5v0__nand2_1
*CAP
1 *9405:D 2.99193e-05
2 *9337:I0 0.00050888
3 *9336:ZN 7.98071e-05
4 *202:12 0.000618606
5 *9337:I0 *9337:S 0.000319837
6 *9337:I0 *9343:A1 0.000487378
7 *9337:I0 *9549:I 0.000109091
8 *9337:I0 *328:12 0.000520152
9 *9337:I0 *378:102 4.71425e-05
10 *9337:I0 *378:108 0
11 *9337:I0 *408:60 0.000507313
12 *9337:I0 *411:12 0.00132202
13 *9337:I0 *444:18 5.59256e-05
14 *9337:I0 *449:16 0.000301355
15 *9337:I0 *460:22 8.69663e-05
16 *9405:D *9344:A1 0.00023197
17 *9405:D *9577:I 0.000111867
18 *202:12 *9336:A1 0.000158809
19 *202:12 *9344:A1 0.000197183
20 *202:12 *9406:CLK 8.0352e-06
21 *202:12 *9577:I 9.92506e-05
22 *202:12 *378:80 0.00020676
23 *202:12 *378:91 0.000118153
24 *202:12 *449:16 0.000806387
25 *9333:I0 *9337:I0 2.96621e-05
*RES
1 *9336:ZN *202:12 16.236 
2 *202:12 *9337:I0 20.872 
3 *202:12 *9405:D 5.184 
*END

*D_NET *203 0.00595106
*CONN
*I *9406:D I *D gf180mcu_fd_sc_mcu7t5v0__dffq_1
*I *9341:I0 I *D gf180mcu_fd_sc_mcu7t5v0__mux2_2
*I *9340:ZN O *D gf180mcu_fd_sc_mcu7t5v0__nand2_1
*CAP
1 *9406:D 9.2931e-05
2 *9341:I0 0.00107087
3 *9340:ZN 0.000267311
4 *203:12 0.00143111
5 *9341:I0 *9220:A1 0.000167051
6 *9341:I0 *9232:A1 3.56172e-05
7 *9341:I0 *9232:A2 5.14116e-06
8 *9341:I0 *9280:A1 0
9 *9341:I0 *9341:S 8.25974e-05
10 *9341:I0 *9574:I 0.000406301
11 *9341:I0 *295:12 0.000410478
12 *9341:I0 *411:12 0
13 *9341:I0 *438:12 0.000128615
14 *9341:I0 *444:18 0
15 *9341:I0 *460:30 2.11447e-05
16 *9341:I0 *594:38 0.00041521
17 *9341:I0 *606:8 0
18 *9406:D *438:12 5.83634e-05
19 *9406:D *460:30 6.13012e-05
20 *203:12 *9339:A1 0
21 *203:12 *328:20 0.00033338
22 *203:12 *438:12 0.000654765
23 *203:12 *449:16 0
24 *9333:I0 *203:12 0
25 *9496:I *9341:I0 0.000308865
*RES
1 *9340:ZN *203:12 16.084 
2 *203:12 *9341:I0 22.24 
3 *203:12 *9406:D 5.336 
*END

*D_NET *204 0.014673
*CONN
*I *9345:I0 I *D gf180mcu_fd_sc_mcu7t5v0__mux2_2
*I *9407:D I *D gf180mcu_fd_sc_mcu7t5v0__dffq_1
*I *9344:ZN O *D gf180mcu_fd_sc_mcu7t5v0__nand2_1
*CAP
1 *9345:I0 0.000396464
2 *9407:D 0
3 *9344:ZN 0.000196709
4 *204:8 0.000593173
5 *9345:I0 *9259:B2 0.00189031
6 *9345:I0 *378:146 0.000374089
7 *9345:I0 *378:159 0.00167984
8 *9345:I0 *408:25 0.00189031
9 *9345:I0 *449:32 4.86993e-06
10 *9345:I0 *460:14 0.00172511
11 *9345:I0 *460:77 0.00179623
12 *9345:I0 *460:81 0.000128271
13 *9345:I0 *515:8 0.000678167
14 *9345:I0 *530:22 0.00116319
15 *204:8 *9394:A2 0.000142182
16 *204:8 *378:91 0.000312799
17 *204:8 *378:102 0.000845897
18 *204:8 *378:135 0.000179145
19 *204:8 *378:146 0.000226661
20 *204:8 *449:16 0.00025239
21 *204:8 *460:14 0.000197186
*RES
1 *9344:ZN *204:8 13.028 
2 *204:8 *9407:D 9 
3 *204:8 *9345:I0 25.568 
*END

*D_NET *205 0.00364014
*CONN
*I *9349:I0 I *D gf180mcu_fd_sc_mcu7t5v0__mux2_2
*I *9408:D I *D gf180mcu_fd_sc_mcu7t5v0__dffq_1
*I *9348:ZN O *D gf180mcu_fd_sc_mcu7t5v0__nand2_1
*CAP
1 *9349:I0 0
2 *9408:D 0.000406822
3 *9348:ZN 0.000412248
4 *205:12 0.00081907
5 *9408:D *9347:A1 3.22019e-05
6 *9408:D *9349:S 6.93808e-05
7 *9408:D *9390:I0 0.00031512
8 *9408:D *9597:I 0.000458149
9 *9408:D *329:26 0.000451297
10 *9408:D *412:79 0.00043899
11 *9408:D *419:14 0
12 *205:12 *9347:A1 5.13353e-05
13 *205:12 *9347:A2 4.65519e-05
14 *205:12 *9349:S 3.37994e-05
15 *205:12 *207:12 0
16 *205:12 *448:49 6.78656e-05
17 *205:12 *448:61 3.73074e-05
*RES
1 *9348:ZN *205:12 15.78 
2 *205:12 *9408:D 18.516 
3 *205:12 *9349:I0 4.5 
*END

*D_NET *206 0.00171773
*CONN
*I *9409:D I *D gf180mcu_fd_sc_mcu7t5v0__dffq_1
*I *9353:I0 I *D gf180mcu_fd_sc_mcu7t5v0__mux2_2
*I *9352:ZN O *D gf180mcu_fd_sc_mcu7t5v0__nand2_1
*CAP
1 *9409:D 0.000127617
2 *9353:I0 0.000201042
3 *9352:ZN 0
4 *206:4 0.000328659
5 *9353:I0 *9284:A1 0.000360951
6 *9353:I0 *9284:A2 0.000308699
7 *9353:I0 *9352:A1 1.5015e-05
8 *9353:I0 *9353:S 9.17202e-06
9 *9353:I0 *9355:A1 6.73834e-05
10 *9353:I0 *9355:A2 0
11 *9353:I0 *9411:CLK 0
12 *9353:I0 *9633:D[1] 0.000106097
13 *9353:I0 *448:49 5.76373e-06
14 *9409:D *9352:A1 0.000122265
15 *9409:D *9356:A2 0
16 *9409:D *9633:D[1] 6.50663e-05
*RES
1 *9352:ZN *206:4 4.5 
2 *206:4 *9353:I0 6.856 
3 *206:4 *9409:D 5.716 
*END

*D_NET *207 0.0062232
*CONN
*I *9410:D I *D gf180mcu_fd_sc_mcu7t5v0__dffq_1
*I *9357:I0 I *D gf180mcu_fd_sc_mcu7t5v0__mux2_2
*I *9356:ZN O *D gf180mcu_fd_sc_mcu7t5v0__nand2_1
*CAP
1 *9410:D 3.28034e-05
2 *9357:I0 0.000983766
3 *9356:ZN 0.00035498
4 *207:12 0.00137155
5 *9357:I0 *9187:I0 5.21069e-05
6 *9357:I0 *9187:I1 0
7 *9357:I0 *9357:S 7.76895e-06
8 *9357:I0 *9361:S 1.87427e-05
9 *9357:I0 *9599:I 0.000664581
10 *9357:I0 *9633:D[2] 5.34282e-05
11 *9357:I0 *412:79 0.000558395
12 *9357:I0 *419:14 7.54445e-06
13 *9357:I0 *445:20 0
14 *207:12 *9185:A1 0.000206333
15 *207:12 *9347:A2 0.000600289
16 *207:12 *9352:A1 0.00074986
17 *207:12 *9552:I 3.73535e-05
18 *207:12 *9633:D[2] 9.96328e-05
19 *207:12 *412:79 0.000194624
20 *207:12 *448:49 1.47007e-05
21 *9499:I *9357:I0 0
22 *9500:I *9357:I0 0.000214737
23 *205:12 *207:12 0
*RES
1 *9356:ZN *207:12 19.124 
2 *207:12 *9357:I0 12.708 
3 *207:12 *9410:D 4.728 
*END

*D_NET *208 0.00553208
*CONN
*I *9411:D I *D gf180mcu_fd_sc_mcu7t5v0__dffq_1
*I *9361:I0 I *D gf180mcu_fd_sc_mcu7t5v0__mux2_2
*I *9360:ZN O *D gf180mcu_fd_sc_mcu7t5v0__nand2_1
*CAP
1 *9411:D 0
2 *9361:I0 0.00157944
3 *9360:ZN 0.000704862
4 *208:10 0.0022843
5 *9361:I0 *9285:A2 1.53627e-05
6 *9361:I0 *448:12 0
7 *9361:I0 *448:20 0.000123745
8 *208:10 *9351:A2 0
9 *208:10 *9359:A1 0
10 *208:10 *9411:CLK 1.02823e-05
11 tl_o[12] *9361:I0 4.74709e-05
12 tl_o[13] *9361:I0 0.00076662
*RES
1 *9360:ZN *208:10 8.984 
2 *208:10 *9361:I0 24.064 
3 *208:10 *9411:D 4.5 
*END

*D_NET *209 0.00606193
*CONN
*I *9412:D I *D gf180mcu_fd_sc_mcu7t5v0__dffq_1
*I *9365:I0 I *D gf180mcu_fd_sc_mcu7t5v0__mux2_2
*I *9364:ZN O *D gf180mcu_fd_sc_mcu7t5v0__nand2_1
*CAP
1 *9412:D 0
2 *9365:I0 0.00112888
3 *9364:ZN 0.000205299
4 *209:10 0.00133418
5 *9365:I0 *9369:I0 4.84492e-05
6 *9365:I0 *9373:I0 0.000214971
7 *9365:I0 *380:164 0.000396912
8 *9365:I0 *430:10 0.000282411
9 *209:10 *9145:I0 0.000459862
10 *209:10 *9363:A1 9.87535e-06
11 *209:10 *9369:I0 0.000267386
12 *209:10 *380:164 0.00162527
13 *209:10 *380:175 8.84331e-05
*RES
1 *9364:ZN *209:10 13.864 
2 *209:10 *9365:I0 17.512 
3 *209:10 *9412:D 9 
*END

*D_NET *210 0.00971892
*CONN
*I *9413:D I *D gf180mcu_fd_sc_mcu7t5v0__dffq_1
*I *9369:I0 I *D gf180mcu_fd_sc_mcu7t5v0__mux2_2
*I *9368:ZN O *D gf180mcu_fd_sc_mcu7t5v0__nand2_1
*CAP
1 *9413:D 0.000110396
2 *9369:I0 0.00117297
3 *9368:ZN 0.000252966
4 *210:10 0.00153633
5 *9369:I0 *9145:I0 0.00212239
6 *9369:I0 *9369:S 5.76373e-06
7 *9369:I0 *380:160 0.00021193
8 *9369:I0 *430:10 0.00140543
9 *9369:I0 *430:36 0.000728903
10 *9413:D *9371:A1 0
11 *210:10 *9145:I0 0.00113846
12 *210:10 *9367:A1 0.000112501
13 *210:10 *9368:A2 4.80781e-05
14 *210:10 *211:10 1.93526e-05
15 *210:10 *430:36 0.000210535
16 *210:10 *430:49 0.000327066
17 *9365:I0 *9369:I0 4.84492e-05
18 *209:10 *9369:I0 0.000267386
*RES
1 *9368:ZN *210:10 13.256 
2 *210:10 *9369:I0 22.376 
3 *210:10 *9413:D 9.532 
*END

*D_NET *211 0.00626283
*CONN
*I *9414:D I *D gf180mcu_fd_sc_mcu7t5v0__dffq_1
*I *9373:I0 I *D gf180mcu_fd_sc_mcu7t5v0__mux2_2
*I *9372:ZN O *D gf180mcu_fd_sc_mcu7t5v0__nand2_1
*CAP
1 *9414:D 0
2 *9373:I0 0.00182598
3 *9372:ZN 0.000931666
4 *211:10 0.00275765
5 *9373:I0 *9365:S 0
6 *9373:I0 *9369:I1 1.32943e-05
7 *9373:I0 *9369:S 0
8 *9373:I0 *9373:S 1.3758e-05
9 *9373:I0 *380:160 0
10 *9373:I0 *380:164 0
11 *9373:I0 *380:175 0
12 *9373:I0 *450:17 0.000266114
13 *211:10 *9367:A1 3.56901e-05
14 *211:10 *9371:A1 0
15 *211:10 *9415:CLK 0
16 *211:10 *380:175 0
17 *211:10 *450:17 0.00018436
18 *9365:I0 *9373:I0 0.000214971
19 *210:10 *211:10 1.93526e-05
*RES
1 *9372:ZN *211:10 15.84 
2 *211:10 *9373:I0 21.616 
3 *211:10 *9414:D 9 
*END

*D_NET *212 0.00926519
*CONN
*I *9145:I0 I *D gf180mcu_fd_sc_mcu7t5v0__mux2_2
*I *9415:D I *D gf180mcu_fd_sc_mcu7t5v0__dffq_1
*I *9144:ZN O *D gf180mcu_fd_sc_mcu7t5v0__nand2_1
*CAP
1 *9145:I0 0.00144003
2 *9415:D 6.91816e-05
3 *9144:ZN 0.000274893
4 *212:12 0.00178411
5 *9145:I0 *9143:A2 0.000106694
6 *9145:I0 *9145:S 0.000389749
7 *9145:I0 *9363:A1 0
8 *9145:I0 *9415:CLK 0.00062042
9 *9145:I0 *380:175 0.000314986
10 *9145:I0 *418:39 3.68392e-05
11 *9145:I0 *430:49 1.72953e-05
12 *9415:D *9367:A1 0
13 *212:12 *9143:A1 0.000123745
14 *212:12 *9143:A2 0.000359953
15 *212:12 *9367:A1 0
16 *212:12 *9372:A1 6.57222e-06
17 *9369:I0 *9145:I0 0.00212239
18 *209:10 *9145:I0 0.000459862
19 *210:10 *9145:I0 0.00113846
*RES
1 *9144:ZN *212:12 16.54 
2 *212:12 *9415:D 4.88 
3 *212:12 *9145:I0 30.372 
*END

*D_NET *213 0.00308481
*CONN
*I *9416:D I *D gf180mcu_fd_sc_mcu7t5v0__dffq_1
*I *9150:I0 I *D gf180mcu_fd_sc_mcu7t5v0__mux2_2
*I *9149:ZN O *D gf180mcu_fd_sc_mcu7t5v0__nand2_1
*CAP
1 *9416:D 0.00018586
2 *9150:I0 0.000657864
3 *9149:ZN 0.000545974
4 *213:8 0.0013897
5 *9150:I0 *9607:I 5.05502e-05
6 *9150:I0 *409:12 0
7 *9150:I0 *409:14 0
8 *9416:D *409:12 0
9 *213:8 *9416:CLK 0.000201948
10 *213:8 *379:79 5.29128e-05
*RES
1 *9149:ZN *213:8 12.42 
2 *213:8 *9150:I0 13.94 
3 *213:8 *9416:D 10.292 
*END

*D_NET *214 0.0045565
*CONN
*I *9417:D I *D gf180mcu_fd_sc_mcu7t5v0__dffq_1
*I *9154:I0 I *D gf180mcu_fd_sc_mcu7t5v0__mux2_2
*I *9153:ZN O *D gf180mcu_fd_sc_mcu7t5v0__nand2_1
*CAP
1 *9417:D 0
2 *9154:I0 0.000197967
3 *9153:ZN 0.000351467
4 *214:10 0.000549434
5 *9154:I0 *9162:I0 0.00159472
6 *9154:I0 *379:77 0.000406051
7 *9154:I0 *409:12 5.94709e-06
8 *9154:I0 *409:14 7.10872e-05
9 *9154:I0 *555:8 0.000696564
10 *214:10 *9149:A2 5.29104e-05
11 *214:10 *9157:A1 0
12 *214:10 *9162:I0 0.000244955
13 *214:10 *9418:D 0.000115543
14 *214:10 *379:77 0.000269857
*RES
1 *9153:ZN *214:10 11.736 
2 *214:10 *9154:I0 14.852 
3 *214:10 *9417:D 9 
*END

*D_NET *215 0.00376609
*CONN
*I *9418:D I *D gf180mcu_fd_sc_mcu7t5v0__dffq_1
*I *9158:I0 I *D gf180mcu_fd_sc_mcu7t5v0__mux2_2
*I *9157:ZN O *D gf180mcu_fd_sc_mcu7t5v0__nand2_1
*CAP
1 *9418:D 0.000404092
2 *9158:I0 0.000460344
3 *9157:ZN 9.95121e-05
4 *215:8 0.000963948
5 *9158:I0 *9149:A2 0.000596614
6 *9158:I0 *442:25 0.000521777
7 *9158:I0 *442:27 4.84399e-05
8 *9418:D *9149:A2 0
9 *9418:D *379:79 0
10 *215:8 *9149:A2 0.000489911
11 *215:8 *9153:A2 4.60055e-05
12 *215:8 *442:25 1.99058e-05
13 *214:10 *9418:D 0.000115543
*RES
1 *9157:ZN *215:8 10.444 
2 *215:8 *9158:I0 14.396 
3 *215:8 *9418:D 11.204 
*END

*D_NET *216 0.00640315
*CONN
*I *9419:D I *D gf180mcu_fd_sc_mcu7t5v0__dffq_1
*I *9162:I0 I *D gf180mcu_fd_sc_mcu7t5v0__mux2_2
*I *9161:ZN O *D gf180mcu_fd_sc_mcu7t5v0__nand2_1
*CAP
1 *9419:D 2.39161e-05
2 *9162:I0 0.000420818
3 *9161:ZN 0.000162146
4 *216:10 0.000606881
5 *9162:I0 *9148:A2 0.000183443
6 *9162:I0 *9162:I1 0
7 *9162:I0 *379:73 0.00017483
8 *9162:I0 *379:77 0.000587446
9 *9162:I0 *409:12 0.000457429
10 *9162:I0 *425:42 0.000140663
11 *9162:I0 *425:53 0.000154891
12 *9419:D *9157:A2 8.55327e-05
13 *216:10 *9161:A2 0.000360235
14 *216:10 *379:73 0.000416639
15 *216:10 *425:42 0.000788606
16 *9154:I0 *9162:I0 0.00159472
17 *214:10 *9162:I0 0.000244955
*RES
1 *9161:ZN *216:10 12.192 
2 *216:10 *9162:I0 17.968 
3 *216:10 *9419:D 9.228 
*END

*D_NET *217 0.0134092
*CONN
*I *9420:D I *D gf180mcu_fd_sc_mcu7t5v0__dffq_1
*I *9166:I0 I *D gf180mcu_fd_sc_mcu7t5v0__mux2_2
*I *9165:ZN O *D gf180mcu_fd_sc_mcu7t5v0__nand2_1
*CAP
1 *9420:D 0
2 *9166:I0 0.000117324
3 *9165:ZN 0.000643951
4 *217:14 0.000761275
5 *9166:I0 *9420:CLK 2.23598e-06
6 *9166:I0 *379:58 7.45328e-07
7 *9166:I0 *379:73 0.00397009
8 *9166:I0 *425:32 0.00377145
9 *9166:I0 *442:10 0.000170911
10 *217:14 *9170:I0 0.000444178
11 *217:14 *379:58 3.86671e-06
12 *217:14 *425:26 0.000561965
13 *217:14 *442:10 0.00296121
*RES
1 *9165:ZN *217:14 22.544 
2 *217:14 *9166:I0 24.444 
3 *217:14 *9420:D 4.5 
*END

*D_NET *218 0.0154681
*CONN
*I *9421:D I *D gf180mcu_fd_sc_mcu7t5v0__dffq_1
*I *9170:I0 I *D gf180mcu_fd_sc_mcu7t5v0__mux2_2
*I *9169:ZN O *D gf180mcu_fd_sc_mcu7t5v0__nand2_1
*CAP
1 *9421:D 0
2 *9170:I0 0.000622836
3 *9169:ZN 0.000301383
4 *218:10 0.000924219
5 *9170:I0 *9170:S 0.000161681
6 *9170:I0 *379:52 0.000381142
7 *9170:I0 *379:58 0.00426538
8 *9170:I0 *413:28 0
9 *9170:I0 *425:26 0.00259041
10 *9170:I0 *442:10 0.000265664
11 *218:10 *379:52 0.00323599
12 *218:10 *425:26 0.00196237
13 *218:10 *442:10 0.000312891
14 *217:14 *9170:I0 0.000444178
*RES
1 *9169:ZN *218:10 17.816 
2 *218:10 *9170:I0 23.288 
3 *218:10 *9421:D 9 
*END

*D_NET *219 0.00117019
*CONN
*I *9174:I0 I *D gf180mcu_fd_sc_mcu7t5v0__mux2_2
*I *9422:D I *D gf180mcu_fd_sc_mcu7t5v0__dffq_1
*I *9173:ZN O *D gf180mcu_fd_sc_mcu7t5v0__nand2_1
*CAP
1 *9174:I0 0.000166028
2 *9422:D 0.000273752
3 *9173:ZN 0
4 *219:4 0.000439779
5 *9174:I0 *9171:A1 9.70638e-06
6 *9174:I0 *9173:A2 4.58601e-06
7 *9174:I0 *9174:S 5.20263e-05
8 *9174:I0 *261:35 0
9 *9422:D *9173:A2 0.000221377
10 *9422:D *9174:S 2.9378e-06
*RES
1 *9173:ZN *219:4 4.5 
2 *219:4 *9422:D 6.552 
3 *219:4 *9174:I0 5.488 
*END

*D_NET *220 0.00199667
*CONN
*I *9423:D I *D gf180mcu_fd_sc_mcu7t5v0__dffq_1
*I *9178:I0 I *D gf180mcu_fd_sc_mcu7t5v0__mux2_2
*I *9177:ZN O *D gf180mcu_fd_sc_mcu7t5v0__nand2_1
*CAP
1 *9423:D 0
2 *9178:I0 0.000289582
3 *9177:ZN 0.000271959
4 *220:10 0.000561541
5 *9178:I0 *9178:I1 1.15244e-05
6 *9178:I0 *261:24 0
7 *9178:I0 *413:14 0.000360189
8 *220:10 *9177:A2 1.2018e-05
9 *220:10 *261:18 0.00032464
10 *220:10 *261:24 0
11 *220:10 *413:14 0.000165222
*RES
1 *9177:ZN *220:10 11.128 
2 *220:10 *9178:I0 11.28 
3 *220:10 *9423:D 9 
*END

*D_NET *221 0.00810209
*CONN
*I *9183:I0 I *D gf180mcu_fd_sc_mcu7t5v0__mux2_2
*I *9424:D I *D gf180mcu_fd_sc_mcu7t5v0__dffq_1
*I *9182:ZN O *D gf180mcu_fd_sc_mcu7t5v0__nand2_1
*CAP
1 *9183:I0 0.00129597
2 *9424:D 0.000185873
3 *9182:ZN 0.00072233
4 *221:14 0.00220417
5 *9183:I0 *9456:I 7.50897e-05
6 *9183:I0 *373:6 7.53241e-05
7 *9183:I0 *373:11 0.000108819
8 *9183:I0 *414:10 7.24161e-06
9 *9183:I0 *414:17 0.000859318
10 *221:14 *9181:A1 0.0012139
11 *221:14 *9182:A2 0.000602329
12 *221:14 *278:25 0.000606221
13 *221:14 *439:37 0.000145491
*RES
1 *9182:ZN *221:14 17.056 
2 *221:14 *9424:D 10.292 
3 *221:14 *9183:I0 19.412 
*END

*D_NET *222 0.00397476
*CONN
*I *9425:D I *D gf180mcu_fd_sc_mcu7t5v0__dffq_1
*I *9187:I0 I *D gf180mcu_fd_sc_mcu7t5v0__mux2_2
*I *9186:ZN O *D gf180mcu_fd_sc_mcu7t5v0__nand2_1
*CAP
1 *9425:D 5.46724e-05
2 *9187:I0 0.000610858
3 *9186:ZN 0.00019973
4 *222:6 0.000865261
5 *9187:I0 *9425:CLK 0
6 *9187:I0 *9633:D[2] 0.000289123
7 *9187:I0 *380:25 0.000174107
8 *9187:I0 *418:6 0.0002082
9 *9187:I0 *448:49 0
10 *222:6 *9354:A1 0.000748773
11 *222:6 *9354:A2 0.000646013
12 *222:6 *9356:A1 8.92613e-05
13 *222:6 *9471:I 8.19174e-06
14 *222:6 *9633:D[2] 2.84653e-05
15 *222:6 *9633:D[1] 0
16 *9357:I0 *9187:I0 5.21069e-05
*RES
1 *9186:ZN *222:6 7.464 
2 *222:6 *9187:I0 17.984 
3 *222:6 *9425:D 4.88 
*END

*D_NET *223 0.00969951
*CONN
*I *9426:D I *D gf180mcu_fd_sc_mcu7t5v0__dffq_1
*I *9191:I0 I *D gf180mcu_fd_sc_mcu7t5v0__mux2_2
*I *9190:ZN O *D gf180mcu_fd_sc_mcu7t5v0__nand2_1
*CAP
1 *9426:D 0
2 *9191:I0 0.000761816
3 *9190:ZN 0.000616005
4 *223:12 0.00137782
5 *9191:I0 *9189:A2 0.00292751
6 *9191:I0 *9195:I0 1.06223e-05
7 *9191:I0 *9550:I 1.06223e-05
8 *9191:I0 *381:127 0.000834113
9 *9191:I0 *429:14 0.00170403
10 *223:12 *9189:A1 4.57747e-05
11 *223:12 *9189:A2 8.12704e-05
12 *223:12 *9190:A2 0.000441602
13 *223:12 *9194:A1 0.000888311
*RES
1 *9190:ZN *223:12 20.948 
2 *223:12 *9191:I0 25.888 
3 *223:12 *9426:D 4.5 
*END

*D_NET *224 0.00680465
*CONN
*I *9427:D I *D gf180mcu_fd_sc_mcu7t5v0__dffq_1
*I *9195:I0 I *D gf180mcu_fd_sc_mcu7t5v0__mux2_2
*I *9194:ZN O *D gf180mcu_fd_sc_mcu7t5v0__nand2_1
*CAP
1 *9427:D 0
2 *9195:I0 0.0008652
3 *9194:ZN 0.000763977
4 *224:12 0.00162918
5 *9195:I0 *9191:I1 3.15856e-05
6 *9195:I0 *9191:S 8.75318e-05
7 *9195:I0 *381:136 3.18983e-05
8 *9195:I0 *384:8 0.00133637
9 *9195:I0 *415:12 0.00106816
10 *9195:I0 *429:14 0.00026732
11 *224:12 *9194:A1 1.12495e-05
12 *224:12 *9194:A2 0.000408433
13 *224:12 *381:127 0.000293128
14 *9191:I0 *9195:I0 1.06223e-05
*RES
1 *9194:ZN *224:12 20.644 
2 *224:12 *9195:I0 26.268 
3 *224:12 *9427:D 4.5 
*END

*D_NET *225 0.0055592
*CONN
*I *9428:D I *D gf180mcu_fd_sc_mcu7t5v0__dffq_1
*I *9199:I0 I *D gf180mcu_fd_sc_mcu7t5v0__mux2_2
*I *9198:ZN O *D gf180mcu_fd_sc_mcu7t5v0__nand2_1
*CAP
1 *9428:D 0
2 *9199:I0 0.000273577
3 *9198:ZN 0.000413458
4 *225:10 0.000687035
5 *9199:I0 *9201:A1 0.00091424
6 *9199:I0 *9205:A1 0
7 *9199:I0 *9207:I0 0.00020334
8 *9199:I0 *9209:A2 0.000444436
9 *9199:I0 *9429:CLK 0.000344569
10 *9199:I0 *381:136 0.000406051
11 *9199:I0 *381:145 0.000508189
12 *9199:I0 *381:156 0.000628376
13 *9199:I0 *415:23 0.000681126
14 *225:10 *9197:A1 0
15 *225:10 *9198:A2 5.48085e-05
*RES
1 *9198:ZN *225:10 7.008 
2 *225:10 *9199:I0 20.568 
3 *225:10 *9428:D 4.5 
*END

*D_NET *226 0.004646
*CONN
*I *9203:I0 I *D gf180mcu_fd_sc_mcu7t5v0__mux2_2
*I *9429:D I *D gf180mcu_fd_sc_mcu7t5v0__dffq_1
*I *9202:ZN O *D gf180mcu_fd_sc_mcu7t5v0__nand2_1
*CAP
1 *9203:I0 0.000102206
2 *9429:D 7.05159e-05
3 *9202:ZN 0.000298726
4 *226:12 0.000471448
5 *9203:I0 *415:23 0.000389329
6 *9203:I0 *415:34 0.000134994
7 *9203:I0 *446:40 0.00155153
8 *9429:D *9431:CLK 7.83779e-05
9 *9429:D *415:23 9.77285e-05
10 *9429:D *446:40 0.00033338
11 *226:12 *9202:A2 0
12 *226:12 *9205:A1 0.000424388
13 *226:12 *9206:A2 0.000514685
14 *226:12 *9209:A2 1.97747e-05
15 *226:12 *9429:CLK 0.000125085
16 *226:12 *9431:CLK 3.38323e-05
*RES
1 *9202:ZN *226:12 12.116 
2 *226:12 *9429:D 10.064 
3 *226:12 *9203:I0 12.876 
*END

*D_NET *227 0.00352793
*CONN
*I *9430:D I *D gf180mcu_fd_sc_mcu7t5v0__dffq_1
*I *9207:I0 I *D gf180mcu_fd_sc_mcu7t5v0__mux2_2
*I *9206:ZN O *D gf180mcu_fd_sc_mcu7t5v0__nand2_1
*CAP
1 *9430:D 0.000315314
2 *9207:I0 0.000692924
3 *9206:ZN 9.19554e-05
4 *227:6 0.00110019
5 *9207:I0 *9199:I1 2.57058e-06
6 *9207:I0 *9205:A1 5.07443e-05
7 *9207:I0 *9206:A2 0
8 *9207:I0 *9207:S 8.66359e-05
9 *9207:I0 *9210:A1 4.62379e-05
10 *9207:I0 *386:12 5.39056e-05
11 *9207:I0 *415:23 7.33578e-06
12 *9207:I0 *415:34 7.14743e-05
13 *9207:I0 *415:47 1.36746e-05
14 *9430:D *9205:A1 0.000634991
15 *9430:D *429:68 3.02683e-05
16 *227:6 *9206:A2 6.50663e-05
17 *227:6 *9210:A1 6.13012e-05
18 *9199:I0 *9207:I0 0.00020334
*RES
1 *9206:ZN *227:6 5.336 
2 *227:6 *9207:I0 18.592 
3 *227:6 *9430:D 16.008 
*END

*D_NET *228 0.00402247
*CONN
*I *9211:I0 I *D gf180mcu_fd_sc_mcu7t5v0__mux2_2
*I *9431:D I *D gf180mcu_fd_sc_mcu7t5v0__dffq_1
*I *9210:ZN O *D gf180mcu_fd_sc_mcu7t5v0__nand2_1
*CAP
1 *9211:I0 0.000545721
2 *9431:D 0.000217273
3 *9210:ZN 0.000564119
4 *228:8 0.00132711
5 *9211:I0 *9209:A1 0.000317618
6 *9211:I0 *9211:S 0.000441055
7 *9211:I0 *446:14 0
8 *9431:D *9209:A1 0.000596622
9 *228:8 *9199:S 1.29518e-05
10 *228:8 *9209:A1 0
11 *228:8 *9210:A2 0
*RES
1 *9210:ZN *228:8 11.964 
2 *228:8 *9431:D 11.204 
3 *228:8 *9211:I0 13.256 
*END

*D_NET *229 0.00153064
*CONN
*I *9432:D I *D gf180mcu_fd_sc_mcu7t5v0__dffq_1
*I *9378:Z O *D gf180mcu_fd_sc_mcu7t5v0__mux2_2
*CAP
1 *9432:D 0.000164364
2 *9378:Z 0.000164364
3 *9432:D *420:14 0.000518671
4 *9432:D *514:14 7.36855e-05
5 *9532:I *9432:D 0.000304779
6 *9536:I *9432:D 0.000304779
*RES
1 *9378:Z *9432:D 20.28 
*END

*D_NET *230 0.00364214
*CONN
*I *9433:D I *D gf180mcu_fd_sc_mcu7t5v0__dffq_1
*I *9379:Z O *D gf180mcu_fd_sc_mcu7t5v0__mux2_2
*CAP
1 *9433:D 0.000418515
2 *9379:Z 0.000418515
3 *9433:D *9379:I1 0.000575887
4 *9479:I *9433:D 0.00222923
*RES
1 *9379:Z *9433:D 15.004 
*END

*D_NET *231 0.00782907
*CONN
*I *9434:D I *D gf180mcu_fd_sc_mcu7t5v0__dffq_1
*I *9380:Z O *D gf180mcu_fd_sc_mcu7t5v0__mux2_2
*CAP
1 *9434:D 0.000827873
2 *9380:Z 0.000827873
3 *9434:D *9381:I1 0.000505665
4 *9434:D *9383:I0 0.000121186
5 *9434:D *9437:CLK 0.00239392
6 *9434:D *9593:I 0
7 *9434:D *9594:I 0.000115767
8 *9434:D *393:14 0.000277075
9 *9434:D *422:14 0.000787065
10 *9434:D *513:24 0.00183967
11 *9538:I *9434:D 0.000132976
*RES
1 *9380:Z *9434:D 30.92 
*END

*D_NET *232 0.00225299
*CONN
*I *9435:D I *D gf180mcu_fd_sc_mcu7t5v0__dffq_1
*I *9381:Z O *D gf180mcu_fd_sc_mcu7t5v0__mux2_2
*CAP
1 *9435:D 0.000515004
2 *9381:Z 0.000515004
3 *9435:D *9337:I1 5.4481e-05
4 *9435:D *9337:S 0.000138585
5 *9435:D *9381:I1 6.85428e-05
6 *9435:D *9593:I 0.000376667
7 *9435:D *9594:I 0.00015384
8 *9435:D *378:110 4.0645e-06
9 *9435:D *408:60 9.88736e-06
10 *9435:D *444:18 3.76352e-05
11 *9497:I *9435:D 0.000379283
*RES
1 *9381:Z *9435:D 13.94 
*END

*D_NET *233 0.00275723
*CONN
*I *9436:D I *D gf180mcu_fd_sc_mcu7t5v0__dffq_1
*I *9382:Z O *D gf180mcu_fd_sc_mcu7t5v0__mux2_2
*CAP
1 *9436:D 0.000231612
2 *9382:Z 0.000231612
3 *9436:D *9254:A2 0.000310083
4 *9436:D *9579:I 0.000763919
5 *9436:D *375:94 0.000982612
6 *9498:I *9436:D 0.00023739
*RES
1 *9382:Z *9436:D 23.624 
*END

*D_NET *234 0.00151422
*CONN
*I *9437:D I *D gf180mcu_fd_sc_mcu7t5v0__dffq_1
*I *9383:Z O *D gf180mcu_fd_sc_mcu7t5v0__mux2_2
*CAP
1 *9437:D 0.000138462
2 *9383:Z 0.000138462
3 *9437:D *9380:I1 0.00101157
4 tl_o[51] *9437:D 9.10106e-05
5 *9482:I *9437:D 8.89491e-06
6 *9535:I *9437:D 0.000125819
*RES
1 *9383:Z *9437:D 20.508 
*END

*D_NET *235 0.00676195
*CONN
*I *9438:D I *D gf180mcu_fd_sc_mcu7t5v0__dffq_1
*I *9384:Z O *D gf180mcu_fd_sc_mcu7t5v0__mux2_2
*CAP
1 *9438:D 0.000702216
2 *9384:Z 0.000702216
3 *9438:D *9599:I 6.04444e-06
4 *9438:D *375:94 0.00130642
5 *9438:D *559:24 0.000379141
6 *9438:D *610:14 0.00274672
7 tl_o[40] *9438:D 0.000521524
8 *9476:I *9438:D 8.52631e-06
9 *9499:I *9438:D 0.000245338
10 *9509:I *9438:D 0.000143801
*RES
1 *9384:Z *9438:D 30.54 
*END

*D_NET *236 0.00236142
*CONN
*I *9439:D I *D gf180mcu_fd_sc_mcu7t5v0__dffq_1
*I *9385:Z O *D gf180mcu_fd_sc_mcu7t5v0__mux2_2
*CAP
1 *9439:D 0.000193816
2 *9385:Z 0.000193816
3 *9439:D *9216:A1 0.0012291
4 *9439:D *9254:A2 0.000114192
5 *9439:D *9598:I 0.000355371
6 *9439:D *611:12 0.000159942
7 tl_o[53] *9439:D 3.10687e-05
8 tl_o[58] *9439:D 8.41113e-05
*RES
1 *9385:Z *9439:D 21.8 
*END

*D_NET *237 0.00145127
*CONN
*I *9440:D I *D gf180mcu_fd_sc_mcu7t5v0__dffq_1
*I *9386:Z O *D gf180mcu_fd_sc_mcu7t5v0__mux2_2
*CAP
1 *9440:D 0.00031048
2 *9386:Z 0.00031048
3 *9440:D *9129:I 0.000267752
4 *9440:D *9238:A1 2.60532e-05
5 *9440:D *378:146 0.00010204
6 *9440:D *378:159 0.000126333
7 *9440:D *402:26 6.39906e-05
8 *9440:D *449:32 0.000244136
*RES
1 *9386:Z *9440:D 20.964 
*END

*D_NET *238 0.00173647
*CONN
*I *9441:D I *D gf180mcu_fd_sc_mcu7t5v0__dffq_1
*I *9388:ZN O *D gf180mcu_fd_sc_mcu7t5v0__oai21_1
*CAP
1 *9441:D 0.000141726
2 *9388:ZN 0.000141726
3 *9441:D *9269:A1 0.000132725
4 *9441:D *371:22 0.000660146
5 *9441:D *380:35 0.000381142
6 *9441:D *380:43 0.000279004
*RES
1 *9388:ZN *9441:D 20.432 
*END

*D_NET *239 0.00467331
*CONN
*I *9442:D I *D gf180mcu_fd_sc_mcu7t5v0__dffq_1
*I *9389:Z O *D gf180mcu_fd_sc_mcu7t5v0__mux2_2
*CAP
1 *9442:D 0.000315255
2 *9389:Z 0.000315255
3 *9442:D *9186:A1 0.00185795
4 *9442:D *9346:A1 0
5 *9442:D *9389:I1 0.000145736
6 *9442:D *9578:I 0.000508311
7 *9442:D *9652:I 0.000159933
8 *9442:D *367:33 0.000427481
9 *9442:D *599:8 0.000318496
10 *9442:D *613:22 0.000604486
11 tl_o[25] *9442:D 2.03987e-05
*RES
1 *9389:Z *9442:D 25.296 
*END

*D_NET *240 0.00234637
*CONN
*I *9443:D I *D gf180mcu_fd_sc_mcu7t5v0__dffq_1
*I *9390:Z O *D gf180mcu_fd_sc_mcu7t5v0__mux2_2
*CAP
1 *9443:D 0.000269867
2 *9390:Z 0.000269867
3 *9443:D *9283:A1 0.000637235
4 *9443:D *9347:A1 7.83779e-05
5 *9443:D *9578:I 2.6313e-05
6 *9443:D *9639:I 6.14664e-05
7 *9443:D *380:25 0.00060635
8 *9443:D *380:29 0.000396896
*RES
1 *9390:Z *9443:D 21.42 
*END

*D_NET *241 0.00239284
*CONN
*I *9444:D I *D gf180mcu_fd_sc_mcu7t5v0__dffq_1
*I *9391:Z O *D gf180mcu_fd_sc_mcu7t5v0__mux2_2
*CAP
1 *9444:D 0.000381114
2 *9391:Z 0.000381114
3 *9444:D *9251:A1 0.000885847
4 *9444:D *9445:D 4.81095e-05
5 *9444:D *9473:I 0.000244535
6 *9444:D *9596:I 0.000382339
7 *9444:D *495:18 6.97802e-05
*RES
1 *9391:Z *9444:D 22.712 
*END

*D_NET *242 0.00549866
*CONN
*I *9445:D I *D gf180mcu_fd_sc_mcu7t5v0__dffq_1
*I *9392:Z O *D gf180mcu_fd_sc_mcu7t5v0__mux2_2
*CAP
1 *9445:D 0.000882786
2 *9392:Z 0.000882786
3 *9445:D *9138:A4 0.00117743
4 *9445:D *9251:A1 0
5 *9445:D *9391:S 0.00231126
6 *9445:D *9445:CLK 0
7 *9445:D *9578:I 0
8 *9445:D *9596:I 0
9 *9445:D *9639:I 0.000196296
10 *9444:D *9445:D 4.81095e-05
*RES
1 *9392:Z *9445:D 28.792 
*END

*D_NET *243 0.00051449
*CONN
*I *9446:D I *D gf180mcu_fd_sc_mcu7t5v0__dffq_1
*I *9393:Z O *D gf180mcu_fd_sc_mcu7t5v0__mux2_2
*CAP
1 *9446:D 4.36762e-05
2 *9393:Z 4.36762e-05
3 *9446:D *9253:A1 1.97747e-05
4 *9446:D *9254:A2 0.000169167
5 *9446:D *460:150 0.000238195
*RES
1 *9393:Z *9446:D 9.684 
*END

*D_NET *244 0.00340321
*CONN
*I *9447:D I *D gf180mcu_fd_sc_mcu7t5v0__dffq_1
*I *9395:ZN O *D gf180mcu_fd_sc_mcu7t5v0__oai21_1
*CAP
1 *9447:D 0.000306929
2 *9395:ZN 0.000306929
3 *9447:D *9342:A1 8.8425e-05
4 *9447:D *9470:I 0.000632978
5 *9447:D *9652:I 0.00034091
6 *9447:D *433:10 0.000948059
7 *9447:D *604:23 0.000778977
*RES
1 *9395:ZN *9447:D 24.156 
*END

*D_NET *245 0.0151011
*CONN
*I *9138:A1 I *D gf180mcu_fd_sc_mcu7t5v0__or4_1
*I *9265:A1 I *D gf180mcu_fd_sc_mcu7t5v0__nand3_4
*I *9312:A1 I *D gf180mcu_fd_sc_mcu7t5v0__nand4_4
*I *9311:A1 I *D gf180mcu_fd_sc_mcu7t5v0__or2_1
*I *9212:B I *D gf180mcu_fd_sc_mcu7t5v0__aoi21_1
*I *9234:A1 I *D gf180mcu_fd_sc_mcu7t5v0__oai21_1
*I *9127:ZN O *D gf180mcu_fd_sc_mcu7t5v0__clkinv_1
*CAP
1 *9138:A1 0.000800882
2 *9265:A1 0.00108393
3 *9312:A1 0.000260504
4 *9311:A1 0.000719609
5 *9212:B 2.32011e-05
6 *9234:A1 6.40694e-05
7 *9127:ZN 0
8 *245:61 0.000896424
9 *245:34 0.00122738
10 *245:14 0.000308853
11 *245:4 0.000376482
12 *9138:A1 *9269:A1 0
13 *9138:A1 *9580:I 0.00142116
14 *9138:A1 *9633:D[0] 0.000110828
15 *9138:A1 *495:18 0
16 *9138:A1 *512:94 3.88062e-05
17 *9212:B *404:14 2.96621e-05
18 *9234:A1 *9135:A2 0.000547293
19 *9234:A1 *9234:B 4.84399e-05
20 *9234:A1 *370:53 0.000105239
21 *9265:A1 *9312:A4 0.000787065
22 *9265:A1 *460:160 4.24194e-05
23 *9265:A1 *512:94 1.76797e-05
24 *9265:A1 *686:10 0.00025617
25 *9311:A1 *9213:A1 8.30758e-05
26 *9311:A1 *9233:A2 6.82786e-06
27 *9311:A1 *9234:A2 1.71291e-05
28 *9311:A1 *9270:B 0.000413378
29 *9311:A1 *9580:I 3.33337e-05
30 *9311:A1 *257:18 2.90837e-05
31 *9311:A1 *296:14 0.000244981
32 *9311:A1 *304:18 0.000316369
33 *9311:A1 *332:18 0.000141627
34 *9311:A1 *407:20 2.15998e-06
35 *9311:A1 *594:83 0.000648353
36 *9312:A1 *9451:RN 0.000379283
37 *9312:A1 *375:72 0.000370644
38 *9312:A1 *407:57 5.97012e-05
39 *9312:A1 *614:10 0.000851228
40 *245:14 *9135:A2 0.000181174
41 *245:14 *9212:A1 0.000459897
42 *245:14 *253:12 3.95494e-05
43 *245:14 *253:25 0.000457572
44 *245:14 *370:53 4.83197e-05
45 *245:14 *404:14 1.91917e-06
46 *245:14 *594:8 2.6126e-05
47 *245:34 *9212:A1 7.16864e-05
48 *245:34 *250:14 8.81341e-06
49 *245:34 *253:25 0.000137776
50 *245:34 *595:66 0.000174123
51 *245:61 *250:14 0.000131485
52 *245:61 *257:18 0.000159942
53 *245:61 *407:20 0.000315086
54 *245:61 *595:66 0.000124318
55 *190:10 *9138:A1 0
*RES
1 *9127:ZN *245:4 4.5 
2 *245:4 *245:14 7.54 
3 *245:14 *9234:A1 10.444 
4 *245:14 *9212:B 9.228 
5 *245:4 *245:34 1.444 
6 *245:34 *9311:A1 19.58 
7 *245:34 *245:61 7.54 
8 *245:61 *9312:A1 12.952 
9 *245:61 *9265:A1 12.04 
10 *9265:A1 *9138:A1 24.688 
*END

*D_NET *246 0.000540739
*CONN
*I *9237:A1 I *D gf180mcu_fd_sc_mcu7t5v0__nor3_1
*I *9128:ZN O *D gf180mcu_fd_sc_mcu7t5v0__clkinv_1
*CAP
1 *9237:A1 7.44968e-05
2 *9128:ZN 7.44968e-05
3 *9237:A1 *438:56 8.55327e-05
4 *9237:A1 *449:59 0.000212712
5 *9237:A1 *648:34 9.35006e-05
*RES
1 *9128:ZN *9237:A1 18.912 
*END

*D_NET *247 0.00267997
*CONN
*I *9238:A1 I *D gf180mcu_fd_sc_mcu7t5v0__nand2_1
*I *9129:ZN O *D gf180mcu_fd_sc_mcu7t5v0__clkinv_1
*CAP
1 *9238:A1 0.000765745
2 *9129:ZN 0.000765745
3 *9238:A1 *9225:A1 1.39031e-05
4 *9238:A1 *9225:A2 0.00034023
5 *9238:A1 *9239:B2 0.000739775
6 *9238:A1 *9386:I1 0
7 *9238:A1 *367:6 6.48034e-06
8 *9238:A1 *367:33 1.50277e-05
9 *9238:A1 *402:26 7.00855e-06
10 *9440:D *9238:A1 2.60532e-05
*RES
1 *9129:ZN *9238:A1 14.472 
*END

*D_NET *248 0.0124634
*CONN
*I *9239:B1 I *D gf180mcu_fd_sc_mcu7t5v0__aoi22_1
*I *9388:A1 I *D gf180mcu_fd_sc_mcu7t5v0__oai21_1
*I *9262:A1 I *D gf180mcu_fd_sc_mcu7t5v0__aoi21_1
*I *9241:B1 I *D gf180mcu_fd_sc_mcu7t5v0__aoi22_1
*I *9130:ZN O *D gf180mcu_fd_sc_mcu7t5v0__clkinv_1
*CAP
1 *9239:B1 0
2 *9388:A1 0.000218212
3 *9262:A1 0.000113875
4 *9241:B1 0.000313656
5 *9130:ZN 0.000379163
6 *248:29 0.000531426
7 *248:23 0.000235741
8 *248:8 0.000729221
9 *9241:B1 *9231:A1 2.6126e-05
10 *9241:B1 *9236:A2 7.4219e-06
11 *9241:B1 *9241:A1 0.000142801
12 *9241:B1 *9243:A1 0.000321946
13 *9241:B1 *9245:A1 0.000292207
14 *9241:B1 *9245:B 0.000396583
15 *9241:B1 *9257:B1 6.74958e-05
16 *9241:B1 *296:14 0
17 *9241:B1 *380:57 5.60494e-05
18 *9241:B1 *513:24 7.45328e-07
19 *9241:B1 *530:22 0.000899095
20 *9262:A1 *9250:B 0.000250212
21 *9262:A1 *9262:B 0.000103686
22 *9262:A1 *506:20 0.000219002
23 *9388:A1 *9282:A2 0.00109126
24 *9388:A1 *9666:I 0.000114894
25 *9388:A1 *375:94 0.00058062
26 *9388:A1 *438:119 4.9253e-05
27 *9388:A1 *449:129 5.37423e-05
28 *248:8 *9228:A1 3.98682e-05
29 *248:8 *9239:A2 4.21224e-05
30 *248:8 *9260:A2 0
31 *248:8 *380:57 0.00137162
32 *248:8 *512:26 0.000169167
33 *248:8 *530:22 9.21887e-05
34 *248:23 *380:57 4.26315e-06
35 *248:29 *9666:I 0.000134649
36 *248:29 *375:74 0.00079477
37 *248:29 *375:94 0.000133365
38 *248:29 *380:57 0.000138015
39 *248:29 *438:29 2.57542e-05
40 *248:29 *438:119 0.00197464
41 tl_o[14] *9241:B1 0.00027273
42 tl_o[20] *248:8 7.57767e-05
*RES
1 *9130:ZN *248:8 9.06 
2 *248:8 *9241:B1 18.212 
3 *248:8 *248:23 0.228 
4 *248:23 *248:29 10.124 
5 *248:29 *9262:A1 10.444 
6 *248:29 *9388:A1 12.572 
7 *248:23 *9239:B1 4.5 
*END

*D_NET *249 0.00585986
*CONN
*I *9140:A2 I *D gf180mcu_fd_sc_mcu7t5v0__or2_1
*I *9139:A2 I *D gf180mcu_fd_sc_mcu7t5v0__nor2_1
*I *9268:I1 I *D gf180mcu_fd_sc_mcu7t5v0__mux2_2
*I *9131:ZN O *D gf180mcu_fd_sc_mcu7t5v0__nand2_1
*CAP
1 *9140:A2 8.0056e-05
2 *9139:A2 0
3 *9268:I1 0.000628088
4 *9131:ZN 0.000261133
5 *249:16 0.000748815
6 *249:12 0.000461916
7 *9140:A2 *593:12 5.0128e-05
8 *9268:I1 *9128:I 0.000741951
9 *9268:I1 *9266:A2 6.89658e-05
10 *9268:I1 *380:229 0.000150775
11 *9268:I1 *407:57 2.53613e-05
12 *9268:I1 *438:72 0
13 *249:12 *9131:A1 2.11616e-05
14 *249:12 *9132:A2 3.81953e-05
15 *249:12 *9312:A2 3.95494e-05
16 *249:12 *299:16 0.000424388
17 *249:12 *380:207 0
18 *249:12 *438:56 5.76749e-06
19 *249:12 *449:82 0.000359001
20 *249:12 *593:12 0.000580603
21 *249:16 *9375:I1 0.000112428
22 *249:16 *256:12 0.000601733
23 *249:16 *299:16 2.83038e-05
24 *249:16 *449:82 0.000431543
*RES
1 *9131:ZN *249:12 12.268 
2 *249:12 *249:16 6.704 
3 *249:16 *9268:I1 18.06 
4 *249:16 *9139:A2 4.5 
5 *249:12 *9140:A2 9.532 
*END

*D_NET *250 0.0053537
*CONN
*I *9133:I I *D gf180mcu_fd_sc_mcu7t5v0__clkinv_1
*I *9270:B I *D gf180mcu_fd_sc_mcu7t5v0__aoi21_1
*I *9212:A1 I *D gf180mcu_fd_sc_mcu7t5v0__aoi21_1
*I *9132:ZN O *D gf180mcu_fd_sc_mcu7t5v0__aoi21_1
*CAP
1 *9133:I 0
2 *9270:B 0.000210375
3 *9212:A1 0.000324454
4 *9132:ZN 0.000191108
5 *250:14 0.000741098
6 *250:8 0.000397376
7 *9212:A1 *257:18 0.000800542
8 *9212:A1 *404:14 3.46924e-05
9 *9270:B *9136:A2 0.000362608
10 *9270:B *9580:I 4.85635e-05
11 *9270:B *404:14 4.522e-05
12 *250:8 *257:18 0.000676712
13 *250:14 *9136:A1 6.67721e-05
14 *250:14 *257:18 0.000368913
15 *9311:A1 *9270:B 0.000413378
16 *245:14 *9212:A1 0.000459897
17 *245:34 *9212:A1 7.16864e-05
18 *245:34 *250:14 8.81341e-06
19 *245:61 *250:14 0.000131485
*RES
1 *9132:ZN *250:8 6.476 
2 *250:8 *250:14 2.052 
3 *250:14 *9212:A1 8.072 
4 *250:14 *9270:B 15.628 
5 *250:8 *9133:I 4.5 
*END

*D_NET *251 0.000430407
*CONN
*I *9136:A1 I *D gf180mcu_fd_sc_mcu7t5v0__nand2_1
*I *9133:ZN O *D gf180mcu_fd_sc_mcu7t5v0__clkinv_1
*CAP
1 *9136:A1 0.000178232
2 *9133:ZN 0.000178232
3 *9136:A1 *9136:A2 2.9378e-06
4 *9136:A1 *380:207 4.2318e-06
5 *250:14 *9136:A1 6.67721e-05
*RES
1 *9133:ZN *9136:A1 10.216 
*END

*D_NET *252 0.00252496
*CONN
*I *9135:A2 I *D gf180mcu_fd_sc_mcu7t5v0__nor2_1
*I *9134:ZN O *D gf180mcu_fd_sc_mcu7t5v0__nand2_1
*CAP
1 *9135:A2 0.000112274
2 *9134:ZN 0.000112274
3 *9135:A2 *9234:B 3.65162e-05
4 *9135:A2 *253:12 0.000206341
5 *9135:A2 *370:53 1.29136e-05
6 *9135:A2 *380:47 0.00124129
7 *9135:A2 *594:83 7.48834e-05
8 *9234:A1 *9135:A2 0.000547293
9 *245:14 *9135:A2 0.000181174
*RES
1 *9134:ZN *9135:A2 21.268 
*END

*D_NET *253 0.00480407
*CONN
*I *9136:A2 I *D gf180mcu_fd_sc_mcu7t5v0__nand2_1
*I *9270:A1 I *D gf180mcu_fd_sc_mcu7t5v0__aoi21_1
*I *9212:A2 I *D gf180mcu_fd_sc_mcu7t5v0__aoi21_1
*I *9135:ZN O *D gf180mcu_fd_sc_mcu7t5v0__nor2_1
*CAP
1 *9136:A2 0.000261982
2 *9270:A1 3.28034e-05
3 *9212:A2 0
4 *9135:ZN 7.09133e-05
5 *253:25 0.000513863
6 *253:12 0.000289991
7 *9136:A2 *9450:D 0.000189147
8 *9136:A2 *380:207 0.000127234
9 *9136:A2 *404:14 2.13407e-05
10 *253:12 *256:12 4.94368e-05
11 *253:12 *370:53 6.49724e-05
12 *253:12 *380:47 3.19219e-05
13 *253:12 *594:8 3.08902e-05
14 *253:25 *9580:I 0.000736043
15 *253:25 *256:12 0.000319736
16 *253:25 *595:31 0.000135048
17 *253:25 *595:33 0.000643582
18 *253:25 *595:66 7.83779e-05
19 *9135:A2 *253:12 0.000206341
20 *9136:A1 *9136:A2 2.9378e-06
21 *9270:B *9136:A2 0.000362608
22 *245:14 *253:12 3.95494e-05
23 *245:14 *253:25 0.000457572
24 *245:34 *253:25 0.000137776
*RES
1 *9135:ZN *253:12 14.564 
2 *253:12 *9212:A2 4.5 
3 *253:12 *253:25 13.256 
4 *253:25 *9270:A1 4.728 
5 *253:25 *9136:A2 7.084 
*END

*D_NET *254 0.00673062
*CONN
*I *9138:A4 I *D gf180mcu_fd_sc_mcu7t5v0__or4_1
*I *9137:ZN O *D gf180mcu_fd_sc_mcu7t5v0__nand2_1
*CAP
1 *9138:A4 0.00142613
2 *9137:ZN 0.00142613
3 *9138:A4 *9138:A3 0.00101725
4 *9138:A4 *9252:A2 0
5 *9138:A4 *9253:A1 0.000127484
6 *9138:A4 *9255:B 0.000127484
7 *9138:A4 *9263:A2 0.000652589
8 *9138:A4 *9282:A2 0.000145334
9 *9138:A4 *9391:S 5.53423e-05
10 *9138:A4 *9596:I 1.21177e-05
11 *9138:A4 *375:94 0.000229894
12 *9138:A4 *506:20 0.000157817
13 *9138:A4 *594:129 0.000175625
14 *9445:D *9138:A4 0.00117743
*RES
1 *9137:ZN *9138:A4 32.06 
*END

*D_NET *255 0.0198896
*CONN
*I *9475:I I *D gf180mcu_fd_sc_mcu7t5v0__dlyd_1
*I *9474:I I *D gf180mcu_fd_sc_mcu7t5v0__dlyd_1
*I *9138:Z O *D gf180mcu_fd_sc_mcu7t5v0__or4_1
*CAP
1 *9475:I 0.000222808
2 *9474:I 0.00161691
3 *9138:Z 0.00135175
4 *255:14 0.00319147
5 *9474:I *9130:I 0.000886521
6 *9474:I *9215:A1 5.33856e-05
7 *9474:I *9226:A2 5.23993e-05
8 *9474:I *9250:A3 0.00132862
9 *9474:I *9262:A2 0.00124189
10 *9474:I *9387:A2 0.000854247
11 *9474:I *9390:S 0.00113127
12 *9474:I *9592:I 0.000414598
13 *9474:I *9639:I 2.38759e-05
14 *9474:I *295:20 0.000496966
15 *9474:I *514:14 2.7675e-05
16 *9475:I *9283:A1 0.000667106
17 *9475:I *9390:I1 9.52854e-05
18 *9475:I *9390:S 0.00283011
19 *9475:I *380:29 0.000247598
20 *255:14 *9282:A2 0.000185185
21 *255:14 *9584:I 7.57788e-06
22 *255:14 *329:12 0.000185185
23 tl_o[49] *9474:I 0.000214579
24 tl_o[50] *9474:I 0.000214579
25 tl_o[58] *9474:I 0.00106913
26 tl_o[58] *9475:I 0.000731424
27 *9532:I *9474:I 0.000408224
28 *9539:I *9474:I 0.000139247
*RES
1 *9138:Z *255:14 24.384 
2 *255:14 *9474:I 39.128 
3 *255:14 *9475:I 17.284 
*END

*D_NET *256 0.0297673
*CONN
*I *9473:I I *D gf180mcu_fd_sc_mcu7t5v0__dlyd_1
*I *9472:I I *D gf180mcu_fd_sc_mcu7t5v0__dlyd_1
*I *9139:ZN O *D gf180mcu_fd_sc_mcu7t5v0__nor2_1
*CAP
1 *9473:I 0.00137331
2 *9472:I 0.000896678
3 *9139:ZN 0.00101416
4 *256:12 0.00328415
5 *9472:I *9227:A2 0
6 *9472:I *9228:A2 3.03414e-05
7 *9472:I *9239:A2 0.00153835
8 *9472:I *9239:B2 0.001325
9 *9472:I *9249:A2 9.13236e-05
10 *9472:I *9383:I0 0.00286256
11 *9472:I *9582:I 0.000382889
12 *9472:I *378:159 0.000920584
13 *9472:I *449:32 0.000486685
14 *9472:I *460:110 0
15 *9472:I *512:26 0.000432477
16 *9473:I *9138:A3 0.000105476
17 *9473:I *9246:A2 0.000142809
18 *9473:I *9249:A2 5.26903e-05
19 *9473:I *9252:A1 0.000192639
20 *9473:I *9252:A2 0.000251776
21 *9473:I *9388:A2 0.000180489
22 *9473:I *9389:S 0.000266746
23 *9473:I *9573:I 8.38488e-05
24 *9473:I *9578:I 0.00313681
25 *9473:I *9584:I 0.00163795
26 *9473:I *9596:I 3.08604e-05
27 *9473:I *9666:I 0.00022961
28 *9473:I *438:125 0.00153058
29 *9473:I *506:20 0.000379934
30 *9473:I *512:26 0.000193421
31 *9473:I *602:12 6.95481e-05
32 *256:12 *9131:A1 0.000502835
33 *256:12 *9135:A1 1.58969e-05
34 *256:12 *9265:A2 0.000337324
35 *256:12 *9375:I1 0.00149575
36 *256:12 *9451:RN 0.000139022
37 *256:12 *257:18 0.00013201
38 *256:12 *299:16 0
39 *256:12 *375:72 3.65376e-05
40 *256:12 *404:14 0
41 *256:12 *407:20 3.73627e-05
42 *256:12 *449:82 1.97747e-05
43 *256:12 *506:33 0.00013397
44 *256:12 *594:8 7.10421e-05
45 *256:12 *595:66 0.00166097
46 *256:12 *614:23 4.10312e-05
47 tl_o[54] *256:12 0.000761797
48 *9444:D *9473:I 0.000244535
49 *9545:I *256:12 4.27914e-05
50 *249:16 *256:12 0.000601733
51 *253:12 *256:12 4.94368e-05
52 *253:25 *256:12 0.000319736
*RES
1 *9139:ZN *256:12 23.06 
2 *256:12 *9472:I 26.024 
3 *256:12 *9473:I 29.064 
*END

*D_NET *257 0.0347037
*CONN
*I *9471:I I *D gf180mcu_fd_sc_mcu7t5v0__dlyd_1
*I *9470:I I *D gf180mcu_fd_sc_mcu7t5v0__dlyd_1
*I *9140:Z O *D gf180mcu_fd_sc_mcu7t5v0__or2_1
*CAP
1 *9471:I 0.00128271
2 *9470:I 0.00147501
3 *9140:Z 0.000547838
4 *257:18 0.00330556
5 *9470:I *9231:A1 0
6 *9470:I *9234:B 0.00155996
7 *9470:I *9238:A2 0.000637816
8 *9470:I *9241:B2 0.000261514
9 *9470:I *9257:B1 0.000467326
10 *9470:I *9260:A2 0.000235371
11 *9470:I *9311:A2 0.000239655
12 *9470:I *9342:A1 0.000118114
13 *9470:I *9559:I 0.000335667
14 *9470:I *9577:I 7.74188e-05
15 *9470:I *9655:I 0.000247725
16 *9470:I *367:33 0.000578597
17 *9470:I *422:85 0.000644146
18 *9470:I *432:17 0.00149692
19 *9470:I *513:24 0.000365636
20 *9470:I *595:33 0
21 *9470:I *604:23 0.000171769
22 *9471:I *9186:A1 0.000521001
23 *9471:I *9254:A3 0.000492075
24 *9471:I *9265:A3 8.12841e-05
25 *9471:I *9269:A1 0.000110627
26 *9471:I *9354:A1 2.5506e-05
27 *9471:I *9354:A2 7.46669e-05
28 *9471:I *9354:A3 2.6126e-05
29 *9471:I *9633:D[2] 3.17095e-05
30 *9471:I *9652:I 0.000759039
31 *9471:I *9664:I 0.000644388
32 *9471:I *258:53 0.000316063
33 *9471:I *367:33 0.00360632
34 *9471:I *466:18 0.00212082
35 *9471:I *495:18 0.00570499
36 *9471:I *506:20 0.00037861
37 *9471:I *595:29 0
38 *9471:I *595:31 0
39 *9471:I *595:33 0
40 *257:18 *9131:A1 0.000471945
41 *257:18 *9132:A2 0.00010054
42 *257:18 *9312:A2 5.87561e-06
43 *257:18 *299:16 2.21744e-05
44 *257:18 *404:14 0.00122806
45 *257:18 *407:20 9.99148e-05
46 *257:18 *595:66 0.000897639
47 tl_o[14] *9470:I 0.000115689
48 tl_o[4] *9470:I 1.15134e-05
49 *9212:A1 *257:18 0.000800542
50 *9311:A1 *257:18 2.90837e-05
51 *9447:D *9470:I 0.000632978
52 *222:6 *9471:I 8.19174e-06
53 *245:61 *257:18 0.000159942
54 *250:8 *257:18 0.000676712
55 *250:14 *257:18 0.000368913
56 *256:12 *257:18 0.00013201
*RES
1 *9140:Z *257:18 26.816 
2 *257:18 *9470:I 36.392 
3 *257:18 *9471:I 37.956 
*END

*D_NET *258 0.0659374
*CONN
*I *9142:A3 I *D gf180mcu_fd_sc_mcu7t5v0__nand3_1
*I *9370:A3 I *D gf180mcu_fd_sc_mcu7t5v0__nand3_1
*I *9366:A3 I *D gf180mcu_fd_sc_mcu7t5v0__nand3_1
*I *9362:A3 I *D gf180mcu_fd_sc_mcu7t5v0__nand3_1
*I *9358:A3 I *D gf180mcu_fd_sc_mcu7t5v0__nand3_1
*I *9354:A3 I *D gf180mcu_fd_sc_mcu7t5v0__nand3_1
*I *9350:A3 I *D gf180mcu_fd_sc_mcu7t5v0__nand3_1
*I *9346:A3 I *D gf180mcu_fd_sc_mcu7t5v0__nand3_1
*I *9141:Z O *D gf180mcu_fd_sc_mcu7t5v0__and2_1
*CAP
1 *9142:A3 1.81327e-05
2 *9370:A3 0
3 *9366:A3 0
4 *9362:A3 0
5 *9358:A3 0
6 *9354:A3 0.000108837
7 *9350:A3 0
8 *9346:A3 0
9 *9141:Z 0.00202598
10 *258:80 2.66165e-05
11 *258:71 6.27545e-05
12 *258:62 0.000847992
13 *258:53 0.00111075
14 *258:40 0.000453146
15 *258:29 0.000174392
16 *258:20 0.00217309
17 *9142:A3 *9142:A2 4.3054e-05
18 *9142:A3 *9366:A1 0.000644864
19 *9142:A3 *9370:A1 0.00104814
20 *9142:A3 *440:61 0.000117908
21 *9354:A3 *9354:A2 0.000120078
22 *9354:A3 *9633:D[2] 0.000216227
23 *258:20 *9269:A1 0.000226699
24 *258:20 *9346:A1 0.00296253
25 *258:20 *9346:A2 0.000158809
26 *258:20 *9393:I0 9.52854e-05
27 *258:20 *281:16 9.30487e-05
28 *258:20 *370:53 0.00160994
29 *258:20 *371:22 0.000604329
30 *258:20 *380:35 0.00426057
31 *258:20 *380:43 0.000324204
32 *258:20 *412:45 0
33 *258:20 *439:16 0.000627017
34 *258:20 *448:69 0.000567311
35 *258:20 *512:94 0.000172326
36 *258:20 *559:24 0.000233377
37 *258:29 *9346:A2 0.00107076
38 *258:29 *9654:I 0.000220016
39 *258:29 *370:53 0.00220752
40 *258:29 *436:10 0.000411079
41 *258:29 *439:16 0.000108517
42 *258:40 *9654:I 4.92886e-05
43 *258:40 *370:53 0.000206333
44 *258:53 *9186:A1 0.000378617
45 *258:53 *9633:D[2] 0.000102756
46 *258:53 *440:34 0.00133009
47 *258:53 *466:18 0.000697422
48 *258:53 *468:22 0.00122957
49 *258:62 *440:34 4.3054e-05
50 *258:62 *440:43 0.0210959
51 *258:62 *457:12 0.000708139
52 *258:62 *464:12 0.00449071
53 *258:62 *466:18 0.00299112
54 *258:62 *468:22 0.000645363
55 *258:71 *9362:A1 0.00268376
56 *258:71 *440:43 0.000127047
57 *258:71 *440:52 0.00280852
58 *258:80 *9362:A1 0.000331102
59 *258:80 *9366:A1 6.38438e-05
60 *258:80 *440:52 0.000117908
61 *258:80 *440:61 0.00034938
62 *9471:I *9354:A3 2.6126e-05
63 *9471:I *258:53 0.000316063
*RES
1 *9141:Z *258:20 45.588 
2 *258:20 *9346:A3 9 
3 *258:20 *258:29 5.7 
4 *258:29 *9350:A3 9 
5 *258:29 *258:40 5.032 
6 *258:40 *9354:A3 5.792 
7 *258:40 *258:53 13.468 
8 *258:53 *9358:A3 9 
9 *258:53 *258:62 51.148 
10 *258:62 *9362:A3 9 
11 *258:62 *258:71 7.068 
12 *258:71 *9366:A3 9 
13 *258:71 *258:80 1.14 
14 *258:80 *9370:A3 9 
15 *258:80 *9142:A3 12.116 
*END

*D_NET *259 0.00452691
*CONN
*I *9144:A1 I *D gf180mcu_fd_sc_mcu7t5v0__nand2_1
*I *9142:ZN O *D gf180mcu_fd_sc_mcu7t5v0__nand3_1
*CAP
1 *9144:A1 0.00122884
2 *9142:ZN 0.00122884
3 *9144:A1 *9142:A1 4.27813e-05
4 *9144:A1 *9142:A2 7.3227e-05
5 *9144:A1 *9143:A1 0.000151949
6 *9144:A1 *9372:A1 0.00180128
*RES
1 *9142:ZN *9144:A1 28.488 
*END

*D_NET *260 0.000109345
*CONN
*I *9144:A2 I *D gf180mcu_fd_sc_mcu7t5v0__nand2_1
*I *9143:ZN O *D gf180mcu_fd_sc_mcu7t5v0__nand2_1
*CAP
1 *9144:A2 5.46724e-05
2 *9143:ZN 5.46724e-05
*RES
1 *9143:ZN *9144:A2 9.38 
*END

*D_NET *261 0.0901274
*CONN
*I *9175:A3 I *D gf180mcu_fd_sc_mcu7t5v0__nand3_1
*I *9167:A3 I *D gf180mcu_fd_sc_mcu7t5v0__nand3_1
*I *9163:A3 I *D gf180mcu_fd_sc_mcu7t5v0__nand3_1
*I *9159:A3 I *D gf180mcu_fd_sc_mcu7t5v0__nand3_1
*I *9151:A3 I *D gf180mcu_fd_sc_mcu7t5v0__nand3_1
*I *9147:A3 I *D gf180mcu_fd_sc_mcu7t5v0__nand3_1
*I *9155:A3 I *D gf180mcu_fd_sc_mcu7t5v0__nand3_1
*I *9171:A3 I *D gf180mcu_fd_sc_mcu7t5v0__nand3_1
*I *9146:Z O *D gf180mcu_fd_sc_mcu7t5v0__and2_1
*CAP
1 *9175:A3 0.000151061
2 *9167:A3 0
3 *9163:A3 5.51198e-05
4 *9159:A3 2.39161e-05
5 *9151:A3 0
6 *9147:A3 0.000485471
7 *9155:A3 7.94086e-05
8 *9171:A3 0
9 *9146:Z 0.00185801
10 *261:58 0.000677187
11 *261:43 0.000788351
12 *261:41 0.00149308
13 *261:39 0.001233
14 *261:35 0.000557518
15 *261:24 0.000702563
16 *261:18 0.00214909
17 *261:10 0.0113412
18 *261:8 0.0115722
19 *9147:A3 *9147:A2 0.000306571
20 *9147:A3 *9151:A1 7.24161e-06
21 *9147:A3 *9153:A1 1.27163e-05
22 *9147:A3 *9153:A2 0
23 *9147:A3 *9157:A1 0
24 *9147:A3 *434:50 8.10706e-06
25 *9155:A3 *9155:A1 5.75752e-06
26 *9155:A3 *9157:A1 2.57058e-06
27 *9159:A3 *9161:A1 8.55327e-05
28 *9163:A3 *9165:A1 5.71374e-05
29 *9175:A3 *9177:A1 0.00012396
30 *9175:A3 *9178:I1 0
31 *261:18 *9177:A2 0.000141897
32 *261:18 *9178:I1 0
33 *261:18 *9637:I 0
34 *261:18 *9643:I 0
35 *261:18 *413:14 0.000185122
36 *261:18 *435:14 0
37 *261:18 *557:10 0
38 *261:24 *413:14 0
39 *261:24 *413:18 0.00250232
40 *261:24 *434:12 0.000902625
41 *261:24 *443:22 5.69717e-05
42 *261:24 *443:41 0.000367176
43 *261:24 *557:10 0.00042042
44 *261:35 *9167:A1 0.00257732
45 *261:35 *9169:A1 4.78829e-05
46 *261:35 *9171:A1 5.87561e-06
47 *261:35 *9171:A2 3.26422e-05
48 *261:35 *9634:D[4] 5.3645e-05
49 *261:35 *9645:I 0.00331899
50 *261:35 *330:10 0.000151949
51 *261:35 *330:25 0.000399963
52 *261:35 *434:25 0.0102255
53 *261:35 *434:29 0.000127047
54 *261:35 *443:41 5.10924e-05
55 *261:39 *9169:A1 0.00243279
56 *261:39 *434:29 0.00485771
57 *261:39 *434:35 6.38541e-05
58 *261:41 *9169:A1 0.00100205
59 *261:41 *330:46 0.00300911
60 *261:41 *434:35 0.0142807
61 *261:41 *434:46 5.59457e-05
62 *261:43 *434:46 0.00109393
63 *261:58 *434:46 0.00018371
64 *261:58 *434:50 0.00071453
65 *9174:I0 *261:35 0
66 *9178:I0 *261:24 0
67 *9292:A3 *261:10 0.000989983
68 *9455:I *261:10 9.01329e-05
69 *9565:I *261:10 0
70 *3:54 *261:8 0.00309383
71 *3:54 *261:10 0.00032893
72 *3:61 *261:10 0.00226037
73 *191:10 *261:10 0
74 *220:10 *261:18 0.00032464
75 *220:10 *261:24 0
*RES
1 *9146:Z *261:8 21.904 
2 *261:8 *261:10 65.056 
3 *261:10 *261:18 21.464 
4 *261:18 *261:24 17.588 
5 *261:24 *9171:A3 4.5 
6 *261:24 *261:35 30.492 
7 *261:35 *261:39 12.616 
8 *261:39 *261:41 36.252 
9 *261:41 *261:43 5.7 
10 *261:43 *9155:A3 9.38 
11 *261:43 *261:58 6.932 
12 *261:58 *9147:A3 17.604 
13 *261:58 *9151:A3 4.5 
14 *261:41 *9159:A3 9.228 
15 *261:39 *9163:A3 9.38 
16 *261:35 *9167:A3 9 
17 *261:18 *9175:A3 5.488 
*END

*D_NET *262 0.00062627
*CONN
*I *9149:A1 I *D gf180mcu_fd_sc_mcu7t5v0__nand2_1
*I *9147:ZN O *D gf180mcu_fd_sc_mcu7t5v0__nand3_1
*CAP
1 *9149:A1 0.000313135
2 *9147:ZN 0.000313135
*RES
1 *9147:ZN *9149:A1 10.824 
*END

*D_NET *263 0.00325486
*CONN
*I *9149:A2 I *D gf180mcu_fd_sc_mcu7t5v0__nand2_1
*I *9148:ZN O *D gf180mcu_fd_sc_mcu7t5v0__nand2_1
*CAP
1 *9149:A2 0.000665435
2 *9148:ZN 0.000665435
3 *9149:A2 *9148:A2 0.00025215
4 *9149:A2 *9152:A1 0
5 *9149:A2 *442:25 0.000532405
6 *9158:I0 *9149:A2 0.000596614
7 *9418:D *9149:A2 0
8 *214:10 *9149:A2 5.29104e-05
9 *215:8 *9149:A2 0.000489911
*RES
1 *9148:ZN *9149:A2 24.688 
*END

*D_NET *264 0.000802681
*CONN
*I *9153:A1 I *D gf180mcu_fd_sc_mcu7t5v0__nand2_1
*I *9151:ZN O *D gf180mcu_fd_sc_mcu7t5v0__nand3_1
*CAP
1 *9153:A1 0.000394982
2 *9151:ZN 0.000394982
3 *9147:A3 *9153:A1 1.27163e-05
*RES
1 *9151:ZN *9153:A1 11.28 
*END

*D_NET *265 0.000846056
*CONN
*I *9153:A2 I *D gf180mcu_fd_sc_mcu7t5v0__nand2_1
*I *9152:ZN O *D gf180mcu_fd_sc_mcu7t5v0__nand2_1
*CAP
1 *9153:A2 0.000310998
2 *9152:ZN 0.000310998
3 *9153:A2 *9152:A1 3.08902e-05
4 *9153:A2 *9157:A1 0.000147165
5 *9153:A2 *442:25 0
6 *9147:A3 *9153:A2 0
7 *215:8 *9153:A2 4.60055e-05
*RES
1 *9152:ZN *9153:A2 20.432 
*END

*D_NET *266 0.00156257
*CONN
*I *9157:A1 I *D gf180mcu_fd_sc_mcu7t5v0__nand2_1
*I *9155:ZN O *D gf180mcu_fd_sc_mcu7t5v0__nand3_1
*CAP
1 *9157:A1 0.000587006
2 *9155:ZN 0.000587006
3 *9157:A1 *9157:A2 0.000222721
4 *9157:A1 *442:25 1.61066e-05
5 *9147:A3 *9157:A1 0
6 *9153:A2 *9157:A1 0.000147165
7 *9155:A3 *9157:A1 2.57058e-06
8 *214:10 *9157:A1 0
*RES
1 *9155:ZN *9157:A1 22.18 
*END

*D_NET *267 0.00222422
*CONN
*I *9157:A2 I *D gf180mcu_fd_sc_mcu7t5v0__nand2_1
*I *9156:ZN O *D gf180mcu_fd_sc_mcu7t5v0__nand2_1
*CAP
1 *9157:A2 0.000612071
2 *9156:ZN 0.000612071
3 *9157:A2 *9152:A2 0
4 *9157:A2 *9156:A1 1.02578e-05
5 *9157:A2 *9156:A2 8.55242e-05
6 *9157:A2 *425:42 0.000127484
7 *9157:A2 *442:25 0.000468562
8 *9157:A1 *9157:A2 0.000222721
9 *9419:D *9157:A2 8.55327e-05
*RES
1 *9156:ZN *9157:A2 23.244 
*END

*D_NET *268 0.00257791
*CONN
*I *9161:A1 I *D gf180mcu_fd_sc_mcu7t5v0__nand2_1
*I *9159:ZN O *D gf180mcu_fd_sc_mcu7t5v0__nand3_1
*CAP
1 *9161:A1 0.000938702
2 *9159:ZN 0.000938702
3 *9161:A1 *9159:A1 1.76898e-05
4 *9161:A1 *434:35 7.98466e-05
5 *9161:A1 *434:46 0.000114041
6 *9161:A1 *442:23 6.04444e-06
7 *9161:A1 *442:25 0.000397355
8 *9159:A3 *9161:A1 8.55327e-05
*RES
1 *9159:ZN *9161:A1 24.688 
*END

*D_NET *269 0.00158191
*CONN
*I *9161:A2 I *D gf180mcu_fd_sc_mcu7t5v0__nand2_1
*I *9160:ZN O *D gf180mcu_fd_sc_mcu7t5v0__nand2_1
*CAP
1 *9161:A2 0.000204438
2 *9160:ZN 0.000204438
3 *9161:A2 *9160:A1 0
4 *9161:A2 *379:73 0.000420419
5 *9161:A2 *425:42 0.000392377
6 *216:10 *9161:A2 0.000360235
*RES
1 *9160:ZN *9161:A2 20.432 
*END

*D_NET *270 0.0107978
*CONN
*I *9165:A1 I *D gf180mcu_fd_sc_mcu7t5v0__nand2_1
*I *9163:ZN O *D gf180mcu_fd_sc_mcu7t5v0__nand3_1
*CAP
1 *9165:A1 0.00170541
2 *9163:ZN 0.00170541
3 *9165:A1 *9163:A1 3.42838e-05
4 *9165:A1 *9163:A2 8.04285e-05
5 *9165:A1 *413:28 0
6 *9165:A1 *434:35 0.00721514
7 *9163:A3 *9165:A1 5.71374e-05
*RES
1 *9163:ZN *9165:A1 38.748 
*END

*D_NET *271 0.00102768
*CONN
*I *9165:A2 I *D gf180mcu_fd_sc_mcu7t5v0__nand2_1
*I *9164:ZN O *D gf180mcu_fd_sc_mcu7t5v0__nand2_1
*CAP
1 *9165:A2 0.000312003
2 *9164:ZN 0.000312003
3 *9165:A2 *9164:A1 1.5015e-05
4 *9165:A2 *379:58 8.20521e-05
5 *9165:A2 *413:28 0.000306608
*RES
1 *9164:ZN *9165:A2 21.04 
*END

*D_NET *272 0.0127939
*CONN
*I *9169:A1 I *D gf180mcu_fd_sc_mcu7t5v0__nand2_1
*I *9167:ZN O *D gf180mcu_fd_sc_mcu7t5v0__nand3_1
*CAP
1 *9169:A1 0.00076802
2 *9167:ZN 0.00076802
3 *9169:A1 *9634:D[4] 0.00203349
4 *9169:A1 *330:46 0.00574168
5 *261:35 *9169:A1 4.78829e-05
6 *261:39 *9169:A1 0.00243279
7 *261:41 *9169:A1 0.00100205
*RES
1 *9167:ZN *9169:A1 39.888 
*END

*D_NET *273 0.00109182
*CONN
*I *9169:A2 I *D gf180mcu_fd_sc_mcu7t5v0__nand2_1
*I *9168:ZN O *D gf180mcu_fd_sc_mcu7t5v0__nand2_1
*CAP
1 *9169:A2 0.000296777
2 *9168:ZN 0.000296777
3 *9169:A2 *413:28 0.000306608
4 *9169:A2 *425:14 0.000177896
5 *9169:A2 *425:18 1.3758e-05
*RES
1 *9168:ZN *9169:A2 21.04 
*END

*D_NET *274 0.000153083
*CONN
*I *9173:A1 I *D gf180mcu_fd_sc_mcu7t5v0__nand2_1
*I *9171:ZN O *D gf180mcu_fd_sc_mcu7t5v0__nand3_1
*CAP
1 *9173:A1 7.65413e-05
2 *9171:ZN 7.65413e-05
3 *9173:A1 *9634:D[6] 0
*RES
1 *9171:ZN *9173:A1 9.532 
*END

*D_NET *275 0.00178399
*CONN
*I *9173:A2 I *D gf180mcu_fd_sc_mcu7t5v0__nand2_1
*I *9172:ZN O *D gf180mcu_fd_sc_mcu7t5v0__nand2_1
*CAP
1 *9173:A2 0.000709186
2 *9172:ZN 0.000709186
3 *9173:A2 *9172:A1 0
4 *9173:A2 *9172:A2 0
5 *9173:A2 *425:8 8.0352e-06
6 *9173:A2 *425:14 0.000131617
7 *9174:I0 *9173:A2 4.58601e-06
8 *9422:D *9173:A2 0.000221377
*RES
1 *9172:ZN *9173:A2 13.788 
*END

*D_NET *276 0.000511187
*CONN
*I *9177:A1 I *D gf180mcu_fd_sc_mcu7t5v0__nand2_1
*I *9175:ZN O *D gf180mcu_fd_sc_mcu7t5v0__nand3_1
*CAP
1 *9177:A1 0.000173636
2 *9175:ZN 0.000173636
3 *9177:A1 *9175:A1 3.99555e-05
4 *9175:A3 *9177:A1 0.00012396
*RES
1 *9175:ZN *9177:A1 10.216 
*END

*D_NET *277 0.0010261
*CONN
*I *9177:A2 I *D gf180mcu_fd_sc_mcu7t5v0__nand2_1
*I *9176:ZN O *D gf180mcu_fd_sc_mcu7t5v0__nand2_1
*CAP
1 *9177:A2 0.000247641
2 *9176:ZN 0.000247641
3 *9177:A2 *9176:A1 0.000376901
4 *220:10 *9177:A2 1.2018e-05
5 *261:18 *9177:A2 0.000141897
*RES
1 *9176:ZN *9177:A2 11.128 
*END

*D_NET *278 0.0997209
*CONN
*I *9180:A3 I *D gf180mcu_fd_sc_mcu7t5v0__nand3_1
*I *9196:A3 I *D gf180mcu_fd_sc_mcu7t5v0__nand3_1
*I *9204:A3 I *D gf180mcu_fd_sc_mcu7t5v0__nand3_1
*I *9208:A3 I *D gf180mcu_fd_sc_mcu7t5v0__nand3_1
*I *9200:A3 I *D gf180mcu_fd_sc_mcu7t5v0__nand3_1
*I *9192:A3 I *D gf180mcu_fd_sc_mcu7t5v0__nand3_1
*I *9188:A3 I *D gf180mcu_fd_sc_mcu7t5v0__nand3_1
*I *9184:A3 I *D gf180mcu_fd_sc_mcu7t5v0__nand3_1
*I *9179:Z O *D gf180mcu_fd_sc_mcu7t5v0__and2_1
*CAP
1 *9180:A3 0
2 *9196:A3 8.14782e-05
3 *9204:A3 8.98663e-05
4 *9208:A3 0.000145168
5 *9200:A3 0.000109668
6 *9192:A3 0
7 *9188:A3 0
8 *9184:A3 0
9 *9179:Z 0.000302735
10 *278:84 0.000320354
11 *278:69 0.000443911
12 *278:65 0.0032165
13 *278:52 0.00378864
14 *278:43 0.00334523
15 *278:37 0.00599853
16 *278:25 0.00522707
17 *278:23 0.00409146
18 *278:10 0.00272296
19 *9196:A3 *9196:A1 2.9378e-06
20 *9196:A3 *9196:A2 5.03217e-05
21 *9204:A3 *9204:A1 2.9378e-06
22 *9204:A3 *9204:A2 5.48978e-05
23 *9208:A3 *9200:A1 0.000960863
24 *9208:A3 *9204:A2 2.49331e-05
25 *9208:A3 *9206:A1 2.98131e-06
26 *9208:A3 *9208:A2 0.000587446
27 *9208:A3 *9210:A1 0.000191531
28 *9208:A3 *437:52 0.000145267
29 *278:10 *281:16 0.00105623
30 *278:10 *412:45 0.000741951
31 *278:10 *448:69 5.14116e-06
32 *278:23 *9183:I1 0.00377717
33 *278:23 *439:35 0.00075875
34 *278:23 *448:69 0.000512066
35 *278:25 *9182:A1 0.00346911
36 *278:25 *9182:A2 0.00128282
37 *278:25 *439:37 0.00128224
38 *278:37 *9644:I 0.0111161
39 *278:43 *437:21 8.75318e-05
40 *278:52 *437:21 0.00499842
41 *278:52 *437:30 0.000190571
42 *278:65 *9196:A2 6.15455e-05
43 *278:65 *437:30 0.0160958
44 *278:65 *437:41 0.000120187
45 *278:69 *331:52 0.000622191
46 *278:69 *437:41 0.00114131
47 *278:84 *9200:A1 0.000462869
48 *278:84 *331:52 0.000212291
49 *278:84 *437:41 9.33883e-05
50 *278:84 *437:52 6.38438e-05
51 *192:10 *278:10 0.000599869
52 *192:10 *278:23 0.00301309
53 *192:10 *278:25 0.0154424
54 *221:14 *278:25 0.000606221
*RES
1 *9179:Z *278:10 9.136 
2 *278:10 *9184:A3 4.5 
3 *278:10 *278:23 26.448 
4 *278:23 *278:25 39.444 
5 *278:25 *278:37 34.6594 
6 *278:37 *278:43 21.7276 
7 *278:43 *9188:A3 9 
8 *278:43 *278:52 12.54 
9 *278:52 *9192:A3 9 
10 *278:52 *278:65 44.172 
11 *278:65 *278:69 10.048 
12 *278:69 *9200:A3 9.608 
13 *278:69 *278:84 6.4 
14 *278:84 *9208:A3 17.3 
15 *278:84 *9204:A3 5.032 
16 *278:65 *9196:A3 5.032 
17 *278:25 *9180:A3 4.5 
*END

*D_NET *279 0.0117091
*CONN
*I *9182:A1 I *D gf180mcu_fd_sc_mcu7t5v0__nand2_1
*I *9180:ZN O *D gf180mcu_fd_sc_mcu7t5v0__nand3_1
*CAP
1 *9182:A1 0.00357542
2 *9180:ZN 0.00357542
3 *9182:A1 *439:37 0.00108917
4 *278:25 *9182:A1 0.00346911
*RES
1 *9180:ZN *9182:A1 38.412 
*END

*D_NET *280 0.00215881
*CONN
*I *9182:A2 I *D gf180mcu_fd_sc_mcu7t5v0__nand2_1
*I *9181:ZN O *D gf180mcu_fd_sc_mcu7t5v0__nand2_1
*CAP
1 *9182:A2 0.00013683
2 *9181:ZN 0.00013683
3 *221:14 *9182:A2 0.000602329
4 *278:25 *9182:A2 0.00128282
*RES
1 *9181:ZN *9182:A2 12.496 
*END

*D_NET *281 0.0298056
*CONN
*I *9186:A1 I *D gf180mcu_fd_sc_mcu7t5v0__nand2_1
*I *9184:ZN O *D gf180mcu_fd_sc_mcu7t5v0__nand3_1
*CAP
1 *9186:A1 0.00105642
2 *9184:ZN 0.00111028
3 *281:16 0.0021667
4 *9186:A1 *9135:A1 7.94242e-05
5 *9186:A1 *9138:A2 0.000255995
6 *9186:A1 *9251:A2 0.000260718
7 *9186:A1 *9652:I 0.000714663
8 *9186:A1 *367:33 0.000271153
9 *9186:A1 *370:53 0.00304776
10 *9186:A1 *440:21 0.000487374
11 *9186:A1 *440:34 0.00019504
12 *9186:A1 *594:117 0.00168842
13 *9186:A1 *599:8 2.85527e-05
14 *9186:A1 *603:10 0.000893894
15 *281:16 *9141:A2 4.45507e-05
16 *281:16 *9281:A2 2.74753e-05
17 *281:16 *9375:I1 0.000142251
18 *281:16 *9547:I 0.000226447
19 *281:16 *412:45 0.00186406
20 *281:16 *431:26 0.000968706
21 *281:16 *448:69 0.00841759
22 *281:16 *460:150 0.000702053
23 *281:16 *460:160 0.000250945
24 *281:16 *512:94 0.000259812
25 *281:16 *687:8 0.000738493
26 *9442:D *9186:A1 0.00185795
27 *9471:I *9186:A1 0.000521001
28 *258:20 *281:16 9.30487e-05
29 *258:53 *9186:A1 0.000378617
30 *278:10 *281:16 0.00105623
*RES
1 *9184:ZN *281:16 35.22 
2 *281:16 *9186:A1 31.876 
*END

*D_NET *282 0.00167639
*CONN
*I *9186:A2 I *D gf180mcu_fd_sc_mcu7t5v0__nand2_1
*I *9185:ZN O *D gf180mcu_fd_sc_mcu7t5v0__nand2_1
*CAP
1 *9186:A2 0.000334653
2 *9185:ZN 0.000334653
3 *9186:A2 *9354:A1 0.000315663
4 *9186:A2 *9633:D[1] 9.03572e-05
5 *9186:A2 *9654:I 7.93965e-05
6 *9186:A2 *431:12 0.000521664
*RES
1 *9185:ZN *9186:A2 21.344 
*END

*D_NET *283 0.00765566
*CONN
*I *9190:A1 I *D gf180mcu_fd_sc_mcu7t5v0__nand2_1
*I *9188:ZN O *D gf180mcu_fd_sc_mcu7t5v0__nand3_1
*CAP
1 *9190:A1 0.00358854
2 *9188:ZN 0.00358854
3 *9190:A1 *9190:A2 0.000114958
4 *9190:A1 *9194:A1 0.000363622
*RES
1 *9188:ZN *9190:A1 39.432 
*END

*D_NET *284 0.00136511
*CONN
*I *9190:A2 I *D gf180mcu_fd_sc_mcu7t5v0__nand2_1
*I *9189:ZN O *D gf180mcu_fd_sc_mcu7t5v0__nand2_1
*CAP
1 *9190:A2 0.00039868
2 *9189:ZN 0.00039868
3 *9190:A2 *9189:A1 1.11891e-05
4 *9190:A1 *9190:A2 0.000114958
5 *223:12 *9190:A2 0.000441602
*RES
1 *9189:ZN *9190:A2 21.952 
*END

*D_NET *285 0.00574663
*CONN
*I *9194:A1 I *D gf180mcu_fd_sc_mcu7t5v0__nand2_1
*I *9192:ZN O *D gf180mcu_fd_sc_mcu7t5v0__nand3_1
*CAP
1 *9194:A1 0.00224173
2 *9192:ZN 0.00224173
3 *9194:A1 *9189:A2 0
4 *9194:A1 *381:118 0
5 *9194:A1 *381:127 0
6 *9190:A1 *9194:A1 0.000363622
7 *223:12 *9194:A1 0.000888311
8 *224:12 *9194:A1 1.12495e-05
*RES
1 *9192:ZN *9194:A1 35.784 
*END

*D_NET *286 0.00142468
*CONN
*I *9194:A2 I *D gf180mcu_fd_sc_mcu7t5v0__nand2_1
*I *9193:ZN O *D gf180mcu_fd_sc_mcu7t5v0__nand2_1
*CAP
1 *9194:A2 0.000216425
2 *9193:ZN 0.000216425
3 *9194:A2 *381:127 0.000583398
4 *224:12 *9194:A2 0.000408433
*RES
1 *9193:ZN *9194:A2 21.648 
*END

*D_NET *287 0.00304398
*CONN
*I *9198:A1 I *D gf180mcu_fd_sc_mcu7t5v0__nand2_1
*I *9196:ZN O *D gf180mcu_fd_sc_mcu7t5v0__nand3_1
*CAP
1 *9198:A1 0.000465268
2 *9196:ZN 0.000465268
3 *9198:A1 *9198:A2 3.08902e-05
4 *9198:A1 *9635:D[4] 0.00104128
5 *9198:A1 *505:12 0.00104128
*RES
1 *9196:ZN *9198:A1 23.016 
*END

*D_NET *288 0.000341809
*CONN
*I *9198:A2 I *D gf180mcu_fd_sc_mcu7t5v0__nand2_1
*I *9197:ZN O *D gf180mcu_fd_sc_mcu7t5v0__nand2_1
*CAP
1 *9198:A2 0.000128055
2 *9197:ZN 0.000128055
3 *9198:A1 *9198:A2 3.08902e-05
4 *225:10 *9198:A2 5.48085e-05
*RES
1 *9197:ZN *9198:A2 9.912 
*END

*D_NET *289 0.000445618
*CONN
*I *9202:A1 I *D gf180mcu_fd_sc_mcu7t5v0__nand2_1
*I *9200:ZN O *D gf180mcu_fd_sc_mcu7t5v0__nand3_1
*CAP
1 *9202:A1 0.000216071
2 *9200:ZN 0.000216071
3 *9202:A1 *9202:A2 1.34755e-05
4 *9202:A1 *9206:A1 0
5 *9202:A1 *9206:A2 0
*RES
1 *9200:ZN *9202:A1 10.368 
*END

*D_NET *290 0.000979508
*CONN
*I *9202:A2 I *D gf180mcu_fd_sc_mcu7t5v0__nand2_1
*I *9201:ZN O *D gf180mcu_fd_sc_mcu7t5v0__nand2_1
*CAP
1 *9202:A2 0.000424248
2 *9201:ZN 0.000424248
3 *9202:A2 *9201:A2 1.3758e-05
4 *9202:A2 *9205:A1 0
5 *9202:A2 *9431:CLK 2.9378e-06
6 *9202:A2 *429:53 9.935e-05
7 *9202:A2 *429:68 1.49066e-06
8 *9202:A1 *9202:A2 1.34755e-05
9 *226:12 *9202:A2 0
*RES
1 *9201:ZN *9202:A2 11.736 
*END

*D_NET *291 0.000869817
*CONN
*I *9206:A1 I *D gf180mcu_fd_sc_mcu7t5v0__nand2_1
*I *9204:ZN O *D gf180mcu_fd_sc_mcu7t5v0__nand3_1
*CAP
1 *9206:A1 0.00038757
2 *9204:ZN 0.00038757
3 *9206:A1 *9200:A1 0
4 *9206:A1 *9204:A2 3.23347e-05
5 *9206:A1 *9206:A2 3.08902e-05
6 *9206:A1 *9210:A1 2.84711e-05
7 *9202:A1 *9206:A1 0
8 *9208:A3 *9206:A1 2.98131e-06
*RES
1 *9204:ZN *9206:A1 11.28 
*END

*D_NET *292 0.00134025
*CONN
*I *9206:A2 I *D gf180mcu_fd_sc_mcu7t5v0__nand2_1
*I *9205:ZN O *D gf180mcu_fd_sc_mcu7t5v0__nand2_1
*CAP
1 *9206:A2 0.000351743
2 *9205:ZN 0.000351743
3 *9206:A2 *9210:A1 0
4 *9206:A2 *9429:CLK 2.6126e-05
5 *9202:A1 *9206:A2 0
6 *9206:A1 *9206:A2 3.08902e-05
7 *9207:I0 *9206:A2 0
8 *226:12 *9206:A2 0.000514685
9 *227:6 *9206:A2 6.50663e-05
*RES
1 *9205:ZN *9206:A2 11.964 
*END

*D_NET *293 0.00186334
*CONN
*I *9210:A1 I *D gf180mcu_fd_sc_mcu7t5v0__nand2_1
*I *9208:ZN O *D gf180mcu_fd_sc_mcu7t5v0__nand3_1
*CAP
1 *9210:A1 0.000640603
2 *9208:ZN 0.000640603
3 *9210:A1 *9199:S 4.97712e-06
4 *9210:A1 *9200:A1 0.00021548
5 *9210:A1 *9208:A2 3.22131e-05
6 *9210:A1 *9210:A2 1.91917e-06
7 *9206:A1 *9210:A1 2.84711e-05
8 *9206:A2 *9210:A1 0
9 *9207:I0 *9210:A1 4.62379e-05
10 *9208:A3 *9210:A1 0.000191531
11 *227:6 *9210:A1 6.13012e-05
*RES
1 *9208:ZN *9210:A1 22.864 
*END

*D_NET *294 0.00106036
*CONN
*I *9210:A2 I *D gf180mcu_fd_sc_mcu7t5v0__nand2_1
*I *9209:ZN O *D gf180mcu_fd_sc_mcu7t5v0__nand2_1
*CAP
1 *9210:A2 0.00044756
2 *9209:ZN 0.00044756
3 *9210:A2 *9209:A2 0.000161832
4 *9210:A2 *9429:CLK 1.49066e-06
5 *9210:A1 *9210:A2 1.91917e-06
6 *228:8 *9210:A2 0
*RES
1 *9209:ZN *9210:A2 11.736 
*END

*D_NET *295 0.0295019
*CONN
*I *9469:I I *D gf180mcu_fd_sc_mcu7t5v0__dlyd_1
*I *9393:S I *D gf180mcu_fd_sc_mcu7t5v0__mux2_2
*I *9391:S I *D gf180mcu_fd_sc_mcu7t5v0__mux2_2
*I *9392:S I *D gf180mcu_fd_sc_mcu7t5v0__mux2_2
*I *9232:ZN O *D gf180mcu_fd_sc_mcu7t5v0__nand2_1
*CAP
1 *9469:I 0
2 *9393:S 0.000267084
3 *9391:S 0.000656494
4 *9392:S 0
5 *9232:ZN 0.00157274
6 *295:24 0.00104954
7 *295:20 0.00223762
8 *295:12 0.00315023
9 *9391:S *9253:A1 3.37776e-05
10 *9391:S *9255:B 0.00101765
11 *9391:S *9263:A2 4.07251e-05
12 *9391:S *9442:CLK 2.6126e-05
13 *9391:S *9639:I 0.000404912
14 *9391:S *380:31 0.00151459
15 *9391:S *474:44 1.1012e-05
16 *9393:S *9235:A2 2.76081e-05
17 *9393:S *9269:A1 8.2622e-05
18 *9393:S *9269:A2 0.000883797
19 *9393:S *9388:B 0.00109815
20 *9393:S *512:94 0.000141543
21 *295:12 *9232:A2 8.55327e-05
22 *295:12 *9574:I 0.000529646
23 *295:12 *9582:I 0.000474737
24 *295:12 *9592:I 1.01609e-05
25 *295:12 *408:51 0.000111721
26 *295:12 *441:14 0.000712843
27 *295:12 *441:34 0.000178346
28 *295:12 *516:10 2.43735e-05
29 *295:20 *9223:A1 0.0003537
30 *295:20 *9250:A3 0.000102185
31 *295:20 *9257:A3 9.26479e-05
32 *295:20 *9257:B2 0.000204373
33 *295:20 *9262:A2 0.00287073
34 *295:20 *9388:B 0.000667266
35 *295:20 *9591:I 6.99564e-05
36 *295:20 *9592:I 0.000341488
37 *295:20 *9598:I 2.6126e-05
38 *295:20 *9639:I 8.04001e-05
39 *295:20 *405:23 2.1182e-05
40 *295:20 *405:25 1.94858e-05
41 *295:20 *422:10 0.000357224
42 *295:20 *516:14 0.00054504
43 *295:20 *516:40 3.71904e-05
44 *295:20 *594:32 0
45 *295:24 *9263:A2 0.00043603
46 *295:24 *9283:A2 1.98965e-05
47 *295:24 *9639:I 0.000262446
48 *295:24 *475:16 0.000142809
49 *295:24 *475:37 0.00101819
50 tl_o[49] *295:20 0.00057828
51 tl_o[64] *9393:S 5.33446e-05
52 tl_o[64] *295:20 0.000154166
53 tl_o[65] *9391:S 0.000582664
54 tl_o[65] *295:24 0.000614659
55 *9138:A4 *9391:S 5.53423e-05
56 *9341:I0 *295:12 0.000410478
57 *9445:D *9391:S 0.00231126
58 *9474:I *295:20 0.000496966
59 *9479:I *295:20 9.08447e-05
60 *9481:I *295:20 0.000141916
*RES
1 *9232:ZN *295:12 25.356 
2 *295:12 *295:20 29.216 
3 *295:20 *295:24 10.048 
4 *295:24 *9392:S 9 
5 *295:24 *9391:S 20.324 
6 *295:20 *9393:S 8.68 
7 *295:12 *9469:I 4.5 
*END

*D_NET *296 0.00478162
*CONN
*I *9234:A2 I *D gf180mcu_fd_sc_mcu7t5v0__oai21_1
*I *9270:A2 I *D gf180mcu_fd_sc_mcu7t5v0__aoi21_1
*I *9233:Z O *D gf180mcu_fd_sc_mcu7t5v0__and2_1
*CAP
1 *9234:A2 0.000186883
2 *9270:A2 1.80244e-05
3 *9233:Z 0.000353622
4 *296:14 0.000558529
5 *9234:A2 *9448:D 0.000413258
6 *9234:A2 *9450:D 0.000251817
7 *9234:A2 *9450:CLK 2.01537e-05
8 *9234:A2 *9580:I 0.000106536
9 *9234:A2 *404:14 0
10 *9234:A2 *594:83 0.000251817
11 *9270:A2 *9450:CLK 0.00013063
12 *9270:A2 *594:83 0.00013063
13 *296:14 *9580:I 0.000427398
14 *296:14 *9582:I 7.3227e-05
15 *296:14 *9612:I 0.000406593
16 *296:14 *304:18 0.000262996
17 *296:14 *332:18 0.000322219
18 *296:14 *513:37 1.88346e-05
19 tl_o[4] *9234:A2 0.000586342
20 *9241:B1 *296:14 0
21 *9311:A1 *9234:A2 1.71291e-05
22 *9311:A1 *296:14 0.000244981
*RES
1 *9233:Z *296:14 13.104 
2 *296:14 *9270:A2 9.38 
3 *296:14 *9234:A2 11.888 
*END

*D_NET *297 0.00610063
*CONN
*I *9249:A2 I *D gf180mcu_fd_sc_mcu7t5v0__nand2_1
*I *9235:ZN O *D gf180mcu_fd_sc_mcu7t5v0__nor2_1
*CAP
1 *9249:A2 0.00120387
2 *9235:ZN 0.00120387
3 *9249:A2 *9227:A2 0.00029704
4 *9249:A2 *9235:A1 0.000251817
5 *9249:A2 *9235:A2 0.000586675
6 *9249:A2 *9249:A1 0.000118665
7 *9249:A2 *9263:A2 0.000565698
8 *9249:A2 *460:129 4.94618e-05
9 *9249:A2 *460:150 8.89622e-05
10 *9249:A2 *506:20 0.000353676
11 *9249:A2 *594:32 0.000748791
12 tl_o[4] *9249:A2 0.000123184
13 tl_o[64] *9249:A2 0.000135941
14 *9472:I *9249:A2 9.13236e-05
15 *9473:I *9249:A2 5.26903e-05
16 *9478:I *9249:A2 0.000151575
17 *9545:I *9249:A2 7.73839e-05
*RES
1 *9235:ZN *9249:A2 30.236 
*END

*D_NET *298 0.00133212
*CONN
*I *9245:B I *D gf180mcu_fd_sc_mcu7t5v0__oai31_2
*I *9236:ZN O *D gf180mcu_fd_sc_mcu7t5v0__nor3_1
*CAP
1 *9245:B 0.000186019
2 *9236:ZN 0.000186019
3 *9245:B *9231:A1 0.00013201
4 *9245:B *9231:A2 0.00032464
5 *9245:B *9257:B1 6.18971e-05
6 *9245:B *513:24 2.44356e-05
7 tl_o[14] *9245:B 2.05156e-05
8 *9241:B1 *9245:B 0.000396583
*RES
1 *9236:ZN *9245:B 11.28 
*END

*D_NET *299 0.00418026
*CONN
*I *9312:A2 I *D gf180mcu_fd_sc_mcu7t5v0__nand4_4
*I *9267:A2 I *D gf180mcu_fd_sc_mcu7t5v0__nor3_2
*I *9266:A1 I *D gf180mcu_fd_sc_mcu7t5v0__nor2_1
*I *9237:ZN O *D gf180mcu_fd_sc_mcu7t5v0__nor3_1
*CAP
1 *9312:A2 3.83023e-05
2 *9267:A2 0.000265523
3 *9266:A1 8.58e-05
4 *9237:ZN 0.000202408
5 *299:16 0.000828506
6 *299:12 0.000717894
7 *9267:A2 *9266:A2 5.0131e-05
8 *9267:A2 *9267:A3 2.23477e-05
9 *9267:A2 *375:72 6.93287e-05
10 *9267:A2 *407:57 3.66201e-05
11 *9267:A2 *648:14 1.37959e-05
12 *9312:A2 *9132:A2 7.83779e-05
13 *299:12 *9131:A1 1.81212e-05
14 *299:12 *9132:A2 0.000192775
15 *299:12 *438:56 8.95196e-05
16 *299:12 *449:59 2.86762e-07
17 *299:12 *449:82 1.04207e-05
18 *299:12 *593:12 6.98246e-05
19 *299:16 *9267:A3 3.77875e-05
20 *299:16 *9268:I0 2.00784e-05
21 *299:16 *9375:I1 0
22 *299:16 *9451:D 0.000353742
23 *299:16 *438:72 7.71175e-06
24 *299:16 *449:82 6.63595e-05
25 *299:16 *593:12 6.68132e-05
26 *9397:D *9267:A2 0.000317494
27 *249:12 *9312:A2 3.95494e-05
28 *249:12 *299:16 0.000424388
29 *249:16 *299:16 2.83038e-05
30 *256:12 *299:16 0
31 *257:18 *9312:A2 5.87561e-06
32 *257:18 *299:16 2.21744e-05
*RES
1 *9237:ZN *299:12 14.868 
2 *299:12 *299:16 4.408 
3 *299:16 *9266:A1 5.032 
4 *299:16 *9267:A2 15.476 
5 *299:12 *9312:A2 4.88 
*END

*D_NET *300 0.0127281
*CONN
*I *9239:B2 I *D gf180mcu_fd_sc_mcu7t5v0__aoi22_1
*I *9238:ZN O *D gf180mcu_fd_sc_mcu7t5v0__nand2_1
*CAP
1 *9239:B2 0.00137371
2 *9238:ZN 0.00137371
3 *9239:B2 *9225:A2 2.00634e-05
4 *9239:B2 *9239:A2 0.00153149
5 *9239:B2 *9240:A1 0.000371749
6 *9239:B2 *9271:A2 0.00393373
7 *9239:B2 *380:57 0.000214418
8 *9239:B2 *402:26 0.000132619
9 *9239:B2 *438:29 0.000478648
10 *9239:B2 *449:32 0.000400787
11 *9239:B2 *511:23 0.000214523
12 *9239:B2 *511:31 9.50338e-05
13 *9239:B2 *512:26 0.000243614
14 tl_o[4] *9239:B2 0.000279211
15 *9238:A1 *9239:B2 0.000739775
16 *9472:I *9239:B2 0.001325
*RES
1 *9238:ZN *9239:B2 47.976 
*END

*D_NET *301 0.0024068
*CONN
*I *9245:A1 I *D gf180mcu_fd_sc_mcu7t5v0__oai31_2
*I *9239:ZN O *D gf180mcu_fd_sc_mcu7t5v0__aoi22_1
*CAP
1 *9245:A1 0.000338808
2 *9239:ZN 0.000338808
3 *9245:A1 *9134:A2 0.000470422
4 *9245:A1 *9228:A2 1.50699e-05
5 *9245:A1 *9234:B 4.9551e-05
6 *9245:A1 *9260:A2 3.65693e-05
7 *9245:A1 *513:24 0.000301131
8 *9245:A1 *530:22 0.000131006
9 *9245:A1 *604:23 0.000433228
10 *9241:B1 *9245:A1 0.000292207
*RES
1 *9239:ZN *9245:A1 22.256 
*END

*D_NET *302 0.0071027
*CONN
*I *9241:B2 I *D gf180mcu_fd_sc_mcu7t5v0__aoi22_1
*I *9240:ZN O *D gf180mcu_fd_sc_mcu7t5v0__nand2_1
*CAP
1 *9241:B2 0.00154214
2 *9240:ZN 0.00154214
3 *9241:B2 *9213:A1 6.16333e-05
4 *9241:B2 *9233:A1 0.000597338
5 *9241:B2 *9238:A2 8.0897e-05
6 *9241:B2 *9240:A1 7.83779e-05
7 *9241:B2 *9241:A1 0.000596131
8 *9241:B2 *9243:A1 0.000958994
9 *9241:B2 *9342:A1 0.00020242
10 *9241:B2 *9381:I0 0.000412478
11 *9241:B2 *9632:D[7] 0.000483799
12 *9241:B2 *9663:I 0.000230417
13 *9241:B2 *332:18 0
14 *9241:B2 *405:38 4.10312e-05
15 *9241:B2 *426:12 1.33951e-05
16 *9470:I *9241:B2 0.000261514
*RES
1 *9240:ZN *9241:B2 32.972 
*END

*D_NET *303 0.000583485
*CONN
*I *9245:A2 I *D gf180mcu_fd_sc_mcu7t5v0__oai31_2
*I *9241:ZN O *D gf180mcu_fd_sc_mcu7t5v0__aoi22_1
*CAP
1 *9245:A2 0.000103439
2 *9241:ZN 0.000103439
3 *9245:A2 *9241:A1 2.6126e-05
4 *9245:A2 *9260:A2 0.00018511
5 *9245:A2 *9612:I 0.000123799
6 *9245:A2 *513:24 4.15726e-05
*RES
1 *9241:ZN *9245:A2 9.988 
*END

*D_NET *304 0.00988228
*CONN
*I *9243:A2 I *D gf180mcu_fd_sc_mcu7t5v0__nand2_1
*I *9257:B1 I *D gf180mcu_fd_sc_mcu7t5v0__oai32_1
*I *9242:ZN O *D gf180mcu_fd_sc_mcu7t5v0__nor2_1
*CAP
1 *9243:A2 0
2 *9257:B1 0.000525115
3 *9242:ZN 0.000314759
4 *304:18 0.000839874
5 *9257:B1 *9231:A2 0.00032464
6 *9257:B1 *9241:A1 0.000251804
7 *9257:B1 *9243:A1 0.000255722
8 *9257:B1 *9257:A1 4.56528e-05
9 *9257:B1 *9257:B2 4.50449e-05
10 *9257:B1 *9260:A2 6.88673e-05
11 *9257:B1 *9260:B 0.00103282
12 *9257:B1 *9261:A1 0.000385601
13 *9257:B1 *9612:I 0.00136444
14 *9257:B1 *513:24 2.96977e-05
15 *9257:B1 *513:37 1.97747e-05
16 *304:18 *9213:A1 3.39869e-05
17 *304:18 *9231:A2 0.00025618
18 *304:18 *9233:A2 0.000230324
19 *304:18 *9612:I 4.90184e-05
20 *304:18 *332:18 0.000834062
21 *304:18 *402:26 6.14386e-05
22 *304:18 *513:37 6.36599e-06
23 tl_o[14] *9257:B1 8.06713e-05
24 tl_o[8] *304:18 0.000231262
25 *9241:B1 *9257:B1 6.74958e-05
26 *9245:B *9257:B1 6.18971e-05
27 *9311:A1 *304:18 0.000316369
28 *9470:I *9257:B1 0.000467326
29 *9525:I *9257:B1 0.00133698
30 *9529:I *9257:B1 7.11238e-05
31 *3:50 *304:18 1.09653e-05
32 *296:14 *304:18 0.000262996
*RES
1 *9242:ZN *304:18 18.288 
2 *304:18 *9257:B1 23.304 
3 *304:18 *9243:A2 4.5 
*END

*D_NET *305 0.00270991
*CONN
*I *9244:B I *D gf180mcu_fd_sc_mcu7t5v0__oai31_1
*I *9243:ZN O *D gf180mcu_fd_sc_mcu7t5v0__nand2_1
*CAP
1 *9244:B 0.000228393
2 *9243:ZN 0.000228393
3 *9244:B *9243:A1 0.000867222
4 *9244:B *9260:B 0.000222042
5 *9244:B *9261:A4 8.12833e-05
6 *9244:B *9612:I 5.09442e-06
7 *9244:B *332:18 1.26706e-05
8 *9244:B *513:37 0.000216092
9 *9244:B *513:49 2.23783e-05
10 *9244:B *514:21 0.000239772
11 *9244:B *514:48 0.000190037
12 tl_o[8] *9244:B 0.000396528
*RES
1 *9243:ZN *9244:B 21.876 
*END

*D_NET *306 0.00131934
*CONN
*I *9245:A3 I *D gf180mcu_fd_sc_mcu7t5v0__oai31_2
*I *9244:ZN O *D gf180mcu_fd_sc_mcu7t5v0__oai31_1
*CAP
1 *9245:A3 4.21727e-05
2 *9244:ZN 4.21727e-05
3 *9245:A3 *9260:B 7.83779e-05
4 *9245:A3 *367:33 0.000560049
5 *9245:A3 *604:23 0.00056691
6 *3:50 *9245:A3 2.96621e-05
*RES
1 *9244:ZN *9245:A3 19.672 
*END

*D_NET *307 0.0082358
*CONN
*I *9312:A3 I *D gf180mcu_fd_sc_mcu7t5v0__nand4_4
*I *9264:A1 I *D gf180mcu_fd_sc_mcu7t5v0__nand2_1
*I *9265:A2 I *D gf180mcu_fd_sc_mcu7t5v0__nand3_4
*I *9245:ZN O *D gf180mcu_fd_sc_mcu7t5v0__oai31_2
*CAP
1 *9312:A3 0.000316597
2 *9264:A1 6.91579e-05
3 *9265:A2 0.000312879
4 *9245:ZN 0.000312879
5 *307:22 0.000385755
6 *9264:A1 *9312:A4 0.000149579
7 *9264:A1 *375:72 4.2318e-06
8 *9264:A1 *595:29 6.68164e-05
9 *9265:A2 *9134:A2 0.000286808
10 *9265:A2 *367:33 0.00189797
11 *9265:A2 *375:72 8.29367e-06
12 *9265:A2 *380:47 0.00134461
13 *9265:A2 *380:57 0.000243508
14 *9265:A2 *506:20 0.000172832
15 *9265:A2 *506:33 0.000124318
16 *9312:A3 *9312:A4 0.00080126
17 *9312:A3 *375:72 3.51062e-05
18 *9312:A3 *407:57 0.00121152
19 *9312:A3 *614:10 0.000154348
20 *256:12 *9265:A2 0.000337324
*RES
1 *9245:ZN *9265:A2 25.144 
2 *9265:A2 *307:22 4.5 
3 *307:22 *9264:A1 5.336 
4 *307:22 *9312:A3 9.896 
*END

*D_NET *308 0.0160148
*CONN
*I *9247:A3 I *D gf180mcu_fd_sc_mcu7t5v0__and3_1
*I *9248:A3 I *D gf180mcu_fd_sc_mcu7t5v0__nand3_1
*I *9246:ZN O *D gf180mcu_fd_sc_mcu7t5v0__nor2_1
*CAP
1 *9247:A3 0
2 *9248:A3 0.000879617
3 *9246:ZN 0.000550038
4 *308:12 0.00142965
5 *9248:A3 *9255:A1 0.00466086
6 *9248:A3 *9283:A1 0.000184412
7 *9248:A3 *9384:I0 4.07251e-05
8 *9248:A3 *9387:A1 3.84317e-05
9 *9248:A3 *9438:CLK 2.11326e-05
10 *9248:A3 *9597:I 5.78857e-05
11 *9248:A3 *375:94 0.000111558
12 *9248:A3 *445:14 0.000184412
13 *9248:A3 *472:6 5.54296e-05
14 *9248:A3 *514:14 0.000842782
15 *9248:A3 *613:22 0.000132963
16 *308:12 *9246:A1 0.000872153
17 *308:12 *9246:A2 2.65323e-05
18 *308:12 *9255:A2 0.000651581
19 *308:12 *9382:I0 8.13062e-05
20 *308:12 *9384:I0 0.000615744
21 *308:12 *9385:I0 0.000197657
22 *308:12 *9572:I 0.000623573
23 *308:12 *9573:I 0.000176979
24 *308:12 *9580:I 6.92736e-05
25 *308:12 *9633:D[0] 0.00188078
26 tl_o[24] *9248:A3 3.88698e-05
27 tl_o[53] *308:12 2.47727e-05
28 *9476:I *9248:A3 0.00156286
29 *9540:I *9248:A3 2.79905e-06
*RES
1 *9246:ZN *308:12 22.772 
2 *308:12 *9248:A3 28.928 
3 *308:12 *9247:A3 4.5 
*END

*D_NET *309 0.00674906
*CONN
*I *9250:A3 I *D gf180mcu_fd_sc_mcu7t5v0__oai31_1
*I *9247:Z O *D gf180mcu_fd_sc_mcu7t5v0__and3_1
*CAP
1 *9250:A3 0.000479082
2 *9247:Z 0.000479082
3 *9250:A3 *9262:A2 0.000346393
4 *9250:A3 *9387:A2 3.1146e-05
5 *9250:A3 *9390:S 0.000752959
6 *9250:A3 *375:94 3.84261e-05
7 tl_o[49] *9250:A3 0.001216
8 tl_o[53] *9250:A3 0.000976761
9 tl_o[65] *9250:A3 0.000118659
10 *9474:I *9250:A3 0.00132862
11 *9477:I *9250:A3 0.000460494
12 *9544:I *9250:A3 0.000419251
13 *295:20 *9250:A3 0.000102185
*RES
1 *9247:Z *9250:A3 28.108 
*END

*D_NET *310 0.00963064
*CONN
*I *9255:A1 I *D gf180mcu_fd_sc_mcu7t5v0__oai21_1
*I *9248:ZN O *D gf180mcu_fd_sc_mcu7t5v0__nand3_1
*CAP
1 *9255:A1 0.000726157
2 *9248:ZN 0.000726157
3 *9255:A1 *9248:A1 6.01004e-05
4 *9255:A1 *9255:A2 7.83779e-05
5 *9255:A1 *9438:CLK 0
6 *9255:A1 *9576:I 0.00173319
7 *9255:A1 *9597:I 5.7423e-06
8 *9255:A1 *412:64 0.000506492
9 *9255:A1 *419:14 2.36279e-05
10 *9255:A1 *445:14 0.00013063
11 *9255:A1 *472:10 0.000301536
12 *9255:A1 *495:18 0.000238829
13 *9255:A1 *613:22 0.000369712
14 tl_o[25] *9255:A1 6.70994e-06
15 *9248:A3 *9255:A1 0.00466086
16 *9476:I *9255:A1 6.25219e-05
*RES
1 *9248:ZN *9255:A1 32.516 
*END

*D_NET *311 0.00830257
*CONN
*I *9250:B I *D gf180mcu_fd_sc_mcu7t5v0__oai31_1
*I *9395:A2 I *D gf180mcu_fd_sc_mcu7t5v0__oai21_1
*I *9249:ZN O *D gf180mcu_fd_sc_mcu7t5v0__nand2_1
*CAP
1 *9250:B 0.000155548
2 *9395:A2 0.000587923
3 *9249:ZN 0
4 *311:6 0.000743471
5 *9250:B *9236:A2 0.00168519
6 *9250:B *9262:B 0.000452652
7 *9250:B *9658:I 0.00017457
8 *9250:B *375:74 0.000688897
9 *9250:B *375:94 0.000119798
10 *9250:B *438:119 6.58922e-05
11 *9250:B *506:20 3.60574e-06
12 *9395:A2 *9236:A2 0.000267795
13 *9395:A2 *9395:A1 3.95622e-05
14 *9395:A2 *9395:B 1.91917e-06
15 *9395:A2 *9646:I 0.000602708
16 *9395:A2 *9665:I 0.000250414
17 *9395:A2 *371:22 0.000531015
18 *9395:A2 *375:74 0.00106911
19 *9395:A2 *530:22 0.000246274
20 *9262:A1 *9250:B 0.000250212
21 *9537:I *9395:A2 0.000366024
*RES
1 *9249:ZN *311:6 9 
2 *311:6 *9395:A2 17.132 
3 *311:6 *9250:B 14.472 
*END

*D_NET *312 0.00170482
*CONN
*I *9263:A1 I *D gf180mcu_fd_sc_mcu7t5v0__and3_1
*I *9250:ZN O *D gf180mcu_fd_sc_mcu7t5v0__oai31_1
*CAP
1 *9263:A1 6.41907e-05
2 *9250:ZN 6.41907e-05
3 *9263:A1 *9235:A2 0.000505657
4 *9263:A1 *9263:A2 0.000226959
5 *9263:A1 *9282:A2 3.19219e-05
6 *9263:A1 *460:150 0.000226959
7 *9263:A1 *512:26 0.000442133
8 *9263:A1 *512:94 0.000142809
*RES
1 *9250:ZN *9263:A1 20.128 
*END

*D_NET *313 0.00113084
*CONN
*I *9252:A3 I *D gf180mcu_fd_sc_mcu7t5v0__nand3_1
*I *9251:ZN O *D gf180mcu_fd_sc_mcu7t5v0__nor2_1
*CAP
1 *9252:A3 0.000192996
2 *9251:ZN 0.000192996
3 *9252:A3 *9251:A1 0.000554451
4 *9252:A3 *9254:A1 9.88736e-06
5 *9252:A3 *9391:I1 4.93649e-05
6 *9252:A3 *495:18 0.000131143
*RES
1 *9251:ZN *9252:A3 10.9 
*END

*D_NET *314 0.0078192
*CONN
*I *9255:B I *D gf180mcu_fd_sc_mcu7t5v0__oai21_1
*I *9252:ZN O *D gf180mcu_fd_sc_mcu7t5v0__nand3_1
*CAP
1 *9255:B 0.000431337
2 *9252:ZN 0.000431337
3 *9255:B *9247:A1 0.0023908
4 *9255:B *9252:A1 1.90464e-05
5 *9255:B *9253:A1 0.000519105
6 *9255:B *9436:CLK 0.000344285
7 *9255:B *329:26 0.00205943
8 *9255:B *380:31 0.00015551
9 *9255:B *602:12 3.73627e-05
10 tl_o[53] *9255:B 0.000285856
11 *9138:A4 *9255:B 0.000127484
12 *9391:S *9255:B 0.00101765
*RES
1 *9252:ZN *9255:B 29.02 
*END

*D_NET *315 0.00222522
*CONN
*I *9254:A3 I *D gf180mcu_fd_sc_mcu7t5v0__nand3_1
*I *9253:ZN O *D gf180mcu_fd_sc_mcu7t5v0__nor2_1
*CAP
1 *9254:A3 0.00015989
2 *9253:ZN 0.00015989
3 *9254:A3 *9262:A2 2.6126e-05
4 *9254:A3 *9269:A1 0.000505665
5 *9254:A3 *9393:I0 0.000622841
6 *9254:A3 *375:72 1.06893e-05
7 *9254:A3 *506:20 0.000225699
8 *9254:A3 *594:117 2.23477e-05
9 *9471:I *9254:A3 0.000492075
*RES
1 *9253:ZN *9254:A3 21.192 
*END

*D_NET *316 0.0100753
*CONN
*I *9255:A2 I *D gf180mcu_fd_sc_mcu7t5v0__oai21_1
*I *9254:ZN O *D gf180mcu_fd_sc_mcu7t5v0__nand3_1
*CAP
1 *9255:A2 0.000911634
2 *9254:ZN 0.000911634
3 *9255:A2 *9215:A1 0.00135501
4 *9255:A2 *9235:A2 9.25495e-06
5 *9255:A2 *9236:A2 0.000220769
6 *9255:A2 *9247:A2 0.000358653
7 *9255:A2 *9250:A2 0
8 *9255:A2 *9254:A1 0.000193933
9 *9255:A2 *9254:A2 0.00198976
10 *9255:A2 *9262:A2 9.57807e-06
11 *9255:A2 *9263:A2 4.50449e-05
12 *9255:A2 *9387:A1 0.000507718
13 *9255:A2 *9387:A2 0.00130628
14 *9255:A2 *9572:I 6.64701e-06
15 *9255:A2 *9580:I 5.19228e-05
16 *9255:A2 *380:43 0
17 *9255:A2 *514:14 6.65506e-05
18 tl_o[25] *9255:A2 2.96621e-05
19 tl_o[53] *9255:A2 4.75255e-05
20 *9255:A1 *9255:A2 7.83779e-05
21 *9476:I *9255:A2 8.36287e-05
22 *9536:I *9255:A2 0.00114711
23 *9544:I *9255:A2 9.29932e-05
24 *308:12 *9255:A2 0.000651581
*RES
1 *9254:ZN *9255:A2 33.124 
*END

*D_NET *317 0.00725751
*CONN
*I *9263:A2 I *D gf180mcu_fd_sc_mcu7t5v0__and3_1
*I *9255:ZN O *D gf180mcu_fd_sc_mcu7t5v0__oai21_1
*CAP
1 *9263:A2 0.000908365
2 *9255:ZN 0.000908365
3 *9263:A2 *9221:A1 0.000194033
4 *9263:A2 *9254:A2 9.21733e-05
5 *9263:A2 *9392:I1 0.000187308
6 *9263:A2 *9572:I 7.6393e-05
7 *9263:A2 *9639:I 2.96427e-06
8 *9263:A2 *460:150 0.000289227
9 *9263:A2 *475:16 0.000135941
10 *9263:A2 *475:37 0.00103394
11 *9263:A2 *506:20 4.20385e-05
12 *9263:A2 *512:16 0.000689855
13 *9263:A2 *613:22 8.36782e-05
14 tl_o[25] *9263:A2 0.000325923
15 tl_o[64] *9263:A2 2.71301e-05
16 *9138:A4 *9263:A2 0.000652589
17 *9249:A2 *9263:A2 0.000565698
18 *9255:A2 *9263:A2 4.50449e-05
19 *9263:A1 *9263:A2 0.000226959
20 *9391:S *9263:A2 4.07251e-05
21 *9478:I *9263:A2 0.000293123
22 *295:24 *9263:A2 0.00043603
*RES
1 *9255:ZN *9263:A2 29.704 
*END

*D_NET *318 0.000338751
*CONN
*I *9257:A3 I *D gf180mcu_fd_sc_mcu7t5v0__oai32_1
*I *9256:ZN O *D gf180mcu_fd_sc_mcu7t5v0__nor2_1
*CAP
1 *9257:A3 2.10285e-05
2 *9256:ZN 2.10285e-05
3 *9257:A3 *9257:B2 0.000204046
4 *295:20 *9257:A3 9.26479e-05
*RES
1 *9256:ZN *9257:A3 18.532 
*END

*D_NET *319 0.00812388
*CONN
*I *9262:A2 I *D gf180mcu_fd_sc_mcu7t5v0__aoi21_1
*I *9257:ZN O *D gf180mcu_fd_sc_mcu7t5v0__oai32_1
*CAP
1 *9262:A2 0.000809546
2 *9257:ZN 0.000809546
3 *9262:A2 *9235:A2 2.53398e-06
4 *9262:A2 *9236:A2 5.10312e-05
5 *9262:A2 *9250:A2 0.000239287
6 *9262:A2 *9254:A1 2.23598e-06
7 *9262:A2 *9262:B 0.000217825
8 *9262:A2 *366:16 0.000124794
9 *9262:A2 *506:20 0.00105677
10 *9250:A3 *9262:A2 0.000346393
11 *9254:A3 *9262:A2 2.6126e-05
12 *9255:A2 *9262:A2 9.57807e-06
13 *9474:I *9262:A2 0.00124189
14 *9477:I *9262:A2 0.000307921
15 *9544:I *9262:A2 7.6798e-06
16 *295:20 *9262:A2 0.00287073
*RES
1 *9257:ZN *9262:A2 31.68 
*END

*D_NET *320 0.00086633
*CONN
*I *9261:A2 I *D gf180mcu_fd_sc_mcu7t5v0__nand4_1
*I *9258:ZN O *D gf180mcu_fd_sc_mcu7t5v0__aoi22_1
*CAP
1 *9261:A2 0.000198409
2 *9258:ZN 0.000198409
3 *9261:A2 *9258:A2 0.000312998
4 *9261:A2 *9258:B2 2.29732e-05
5 tl_o[14] *9261:A2 3.17618e-05
6 *9535:I *9261:A2 6.04444e-06
7 *9543:I *9261:A2 9.57351e-05
*RES
1 *9258:ZN *9261:A2 19.52 
*END

*D_NET *321 0.000705277
*CONN
*I *9261:A3 I *D gf180mcu_fd_sc_mcu7t5v0__nand4_1
*I *9259:ZN O *D gf180mcu_fd_sc_mcu7t5v0__oai22_1
*CAP
1 *9261:A3 6.32856e-05
2 *9259:ZN 6.32856e-05
3 *9261:A3 *9258:A2 0.000458141
4 *9535:I *9261:A3 0.000109376
5 *9537:I *9261:A3 1.11891e-05
*RES
1 *9259:ZN *9261:A3 19.14 
*END

*D_NET *322 0.0110886
*CONN
*I *9261:A4 I *D gf180mcu_fd_sc_mcu7t5v0__nand4_1
*I *9260:ZN O *D gf180mcu_fd_sc_mcu7t5v0__oai21_1
*CAP
1 *9261:A4 0.000706843
2 *9260:ZN 0.000706843
3 *9261:A4 *9233:A1 0.000521847
4 *9261:A4 *9262:B 0.000609642
5 *9261:A4 *332:18 0.000162858
6 *9261:A4 *513:24 0.00269464
7 *9261:A4 *513:49 7.95976e-05
8 tl_o[8] *9261:A4 0.00537592
9 *9244:B *9261:A4 8.12833e-05
10 *9480:I *9261:A4 7.88152e-05
11 *3:50 *9261:A4 7.03182e-05
*RES
1 *9260:ZN *9261:A4 33.656 
*END

*D_NET *323 0.00948786
*CONN
*I *9262:B I *D gf180mcu_fd_sc_mcu7t5v0__aoi21_1
*I *9261:ZN O *D gf180mcu_fd_sc_mcu7t5v0__nand4_1
*CAP
1 *9262:B 0.00225942
2 *9261:ZN 0.00225942
3 *9262:B *9224:A2 0.000166066
4 *9262:B *9258:B2 0
5 *9262:B *9379:I0 0.000382541
6 *9262:B *9387:A1 0.000149793
7 *9262:B *9388:B 0.000413258
8 *9262:B *366:16 0.000185103
9 *9262:B *375:72 8.60659e-05
10 *9262:B *412:10 0.000171721
11 *9262:B *412:31 0.00123364
12 *9262:B *438:119 2.05156e-05
13 *9262:B *506:20 1.31249e-05
14 tl_o[52] *9262:B 8.29629e-06
15 tl_o[54] *9262:B 6.84149e-05
16 tl_o[57] *9262:B 0.000112373
17 *9250:B *9262:B 0.000452652
18 *9261:A4 *9262:B 0.000609642
19 *9262:A1 *9262:B 0.000103686
20 *9262:A2 *9262:B 0.000217825
21 *9477:I *9262:B 7.23688e-05
22 *9480:I *9262:B 0.000267726
23 *9485:I *9262:B 0.00023127
24 *9489:I *9262:B 2.9378e-06
*RES
1 *9261:ZN *9262:B 38.596 
*END

*D_NET *324 0.00224742
*CONN
*I *9263:A3 I *D gf180mcu_fd_sc_mcu7t5v0__and3_1
*I *9262:ZN O *D gf180mcu_fd_sc_mcu7t5v0__aoi21_1
*CAP
1 *9263:A3 0.000123438
2 *9262:ZN 0.000123438
3 *9263:A3 *9254:A2 0.000181281
4 *9263:A3 *9393:I0 4.78829e-05
5 *9263:A3 *371:22 0.00077894
6 *9263:A3 *380:43 0.000369462
7 *9263:A3 *460:150 0.00029964
8 *9263:A3 *594:117 0.00032334
*RES
1 *9262:ZN *9263:A3 21.04 
*END

*D_NET *325 0.00684484
*CONN
*I *9312:A4 I *D gf180mcu_fd_sc_mcu7t5v0__nand4_4
*I *9264:A2 I *D gf180mcu_fd_sc_mcu7t5v0__nand2_1
*I *9265:A3 I *D gf180mcu_fd_sc_mcu7t5v0__nand3_4
*I *9263:Z O *D gf180mcu_fd_sc_mcu7t5v0__and3_1
*CAP
1 *9312:A4 0.000471681
2 *9264:A2 0
3 *9265:A3 0.000162989
4 *9263:Z 0.000296277
5 *325:12 0.000204378
6 *325:10 0.000809347
7 *9265:A3 *9269:A1 0.000151957
8 *9265:A3 *9580:I 0
9 *9265:A3 *375:72 0.000164236
10 *9265:A3 *506:20 0.000154451
11 *9265:A3 *506:33 0.000255714
12 *9265:A3 *595:29 2.45791e-05
13 *9312:A4 *407:57 1.44832e-05
14 *9312:A4 *460:150 0
15 *9312:A4 *460:160 0.000379302
16 *9312:A4 *512:94 6.05076e-05
17 *9312:A4 *595:29 1.7295e-05
18 *325:10 *9253:A1 0.00097506
19 *325:10 *9254:A1 0.000343551
20 *325:10 *9254:A2 2.03987e-05
21 *325:10 *9269:A1 0.00018371
22 *325:10 *9393:I0 2.44356e-05
23 *325:10 *9580:I 0
24 *325:10 *380:43 0.000120723
25 *325:12 *9269:A1 0.000190571
26 *325:12 *9580:I 0
27 *9264:A1 *9312:A4 0.000149579
28 *9265:A1 *9312:A4 0.000787065
29 *9312:A3 *9312:A4 0.00080126
30 *9471:I *9265:A3 8.12841e-05
*RES
1 *9263:Z *325:10 12.496 
2 *325:10 *325:12 0.532 
3 *325:12 *9265:A3 11.128 
4 *325:12 *9264:A2 9 
5 *325:10 *9312:A4 15.916 
*END

*D_NET *326 0.00313476
*CONN
*I *9393:I0 I *D gf180mcu_fd_sc_mcu7t5v0__mux2_2
*I *9264:ZN O *D gf180mcu_fd_sc_mcu7t5v0__nand2_1
*CAP
1 *9393:I0 0.000270016
2 *9264:ZN 0.000270016
3 *9393:I0 *370:53 0.000605631
4 *9393:I0 *380:43 0.000812388
5 *9393:I0 *594:117 0.000386266
6 *9254:A3 *9393:I0 0.000622841
7 *9263:A3 *9393:I0 4.78829e-05
8 *258:20 *9393:I0 9.52854e-05
9 *325:10 *9393:I0 2.44356e-05
*RES
1 *9264:ZN *9393:I0 22.408 
*END

*D_NET *327 0.00977821
*CONN
*I *9377:S I *D gf180mcu_fd_sc_mcu7t5v0__mux2_2
*I *9376:S I *D gf180mcu_fd_sc_mcu7t5v0__mux2_2
*I *9374:S I *D gf180mcu_fd_sc_mcu7t5v0__mux2_2
*I *9375:S I *D gf180mcu_fd_sc_mcu7t5v0__mux2_2
*I *9267:ZN O *D gf180mcu_fd_sc_mcu7t5v0__nor3_2
*CAP
1 *9377:S 0.000208419
2 *9376:S 0.00035166
3 *9374:S 0.000519227
4 *9375:S 7.30593e-05
5 *9267:ZN 0
6 *327:17 0.00178133
7 *327:13 0.00128334
8 *327:4 0.000237536
9 *9374:S *514:69 0.00246583
10 *9374:S *650:10 0.000989072
11 *9375:S *9449:RN 0.000345749
12 *9375:S *375:72 9.026e-05
13 *9376:S *9376:I0 7.24161e-06
14 *9376:S *9376:I1 7.36325e-05
15 *9376:S *514:69 8.38119e-05
16 *9377:S *9301:A2 7.2647e-05
17 *9377:S *375:72 0.000124653
18 *9377:S *460:164 0.000151949
19 *9377:S *648:89 0
20 *327:13 *9449:RN 0.000495697
21 *327:13 *375:72 0.000162119
22 *327:13 *648:8 2.74753e-05
23 *327:13 *648:89 0
24 *327:17 *9301:A2 0
25 *327:17 *9397:CLK 5.34556e-05
26 *327:17 *9449:RN 7.54435e-05
27 *327:17 *9449:CLK 9.30147e-05
28 *327:17 *438:72 1.15966e-05
29 *327:17 *514:69 0
30 *3:50 *9374:S 0
*RES
1 *9267:ZN *327:4 4.5 
2 *327:4 *9375:S 5.64 
3 *327:4 *327:13 1.9 
4 *327:13 *327:17 10.2 
5 *327:17 *9374:S 16.144 
6 *327:17 *9376:S 11.356 
7 *327:13 *9377:S 15.324 
*END

*D_NET *328 0.00894155
*CONN
*I *9280:A2 I *D gf180mcu_fd_sc_mcu7t5v0__and2_1
*I *9279:A2 I *D gf180mcu_fd_sc_mcu7t5v0__and2_1
*I *9278:A2 I *D gf180mcu_fd_sc_mcu7t5v0__and2_1
*I *9650:I I *D gf180mcu_fd_sc_mcu7t5v0__buf_2
*I *9272:ZN O *D gf180mcu_fd_sc_mcu7t5v0__nor3_2
*CAP
1 *9280:A2 0
2 *9279:A2 0
3 *9278:A2 0
4 *9650:I 0.00139771
5 *9272:ZN 0.000318411
6 *328:22 0.00170509
7 *328:20 0.0010121
8 *328:12 0.00102313
9 *9650:I *451:10 4.71484e-05
10 *328:12 *9272:A2 0.000217775
11 *328:12 *9394:A2 0.000378601
12 *328:12 *9395:B 0.000197186
13 *328:12 *371:8 7.43203e-06
14 *328:12 *372:18 0.000514511
15 *328:12 *449:16 7.195e-05
16 *328:12 *594:32 5.66946e-05
17 *328:20 *9230:A1 0.000396912
18 *328:20 *9280:A1 0.000107858
19 *328:20 *9339:A1 4.13518e-05
20 *328:20 *9406:CLK 7.24161e-06
21 *328:20 *9577:I 0.000110382
22 *328:20 *372:18 0.000203409
23 *328:20 *460:30 0
24 *328:22 *9339:A1 2.97354e-06
25 *9272:A3 *328:12 8.52185e-05
26 *9333:I0 *328:12 0.000184938
27 *9333:I0 *328:20 0
28 *9337:I0 *328:12 0.000520152
29 *201:10 *9650:I 0
30 *201:10 *328:22 0
31 *203:12 *328:20 0.00033338
*RES
1 *9272:ZN *328:12 18.364 
2 *328:12 *328:20 10.504 
3 *328:20 *328:22 1.9 
4 *328:22 *9650:I 18.576 
5 *328:22 *9278:A2 9 
6 *328:20 *9279:A2 9 
7 *328:12 *9280:A2 4.5 
*END

*D_NET *329 0.0211709
*CONN
*I *9283:A2 I *D gf180mcu_fd_sc_mcu7t5v0__and2_1
*I *9649:I I *D gf180mcu_fd_sc_mcu7t5v0__buf_2
*I *9285:A2 I *D gf180mcu_fd_sc_mcu7t5v0__and2_1
*I *9284:A2 I *D gf180mcu_fd_sc_mcu7t5v0__and2_1
*I *9282:ZN O *D gf180mcu_fd_sc_mcu7t5v0__nor3_2
*CAP
1 *9283:A2 4.869e-05
2 *9649:I 0.000661053
3 *9285:A2 6.77607e-05
4 *9284:A2 5.55635e-05
5 *9282:ZN 0.00049751
6 *329:37 0.000783518
7 *329:26 0.00116565
8 *329:12 0.00160158
9 *9283:A2 *9639:I 0.000431418
10 *9284:A2 *9353:S 9.54229e-05
11 *9284:A2 *448:49 1.2339e-05
12 *9285:A2 *9284:A1 0
13 *9285:A2 *9633:D[2] 4.58601e-06
14 *9285:A2 *418:33 0
15 *9649:I *380:152 0.00128054
16 *329:12 *9221:A1 4.44591e-06
17 *329:12 *9252:A2 0.000559384
18 *329:12 *9282:A1 0.000212063
19 *329:12 *9282:A2 0.000368188
20 *329:12 *9389:I0 4.47078e-05
21 *329:12 *9392:I0 7.83779e-05
22 *329:12 *375:94 5.01388e-05
23 *329:26 *9247:A1 0.000336197
24 *329:26 *9390:S 0.00342579
25 *329:26 *9597:I 0.000492954
26 *329:26 *9633:D[2] 0.000995575
27 *329:26 *375:94 8.36373e-05
28 *329:26 *380:12 0.000507951
29 *329:26 *380:25 5.61034e-05
30 *329:26 *380:152 0.000206333
31 *329:26 *472:36 0.000675322
32 *329:37 *9633:D[2] 0.00044442
33 *329:37 *380:152 0.000610089
34 tl_o[24] *329:12 0.00117198
35 tl_o[24] *329:26 0.000151146
36 tl_o[53] *329:26 0.000776533
37 tl_o[65] *9283:A2 0.000174107
38 *9255:B *329:26 0.00205943
39 *9353:I0 *9284:A2 0.000308699
40 *9361:I0 *9285:A2 1.53627e-05
41 *9408:D *329:26 0.000451297
42 *255:14 *329:12 0.000185185
43 *295:24 *9283:A2 1.98965e-05
*RES
1 *9282:ZN *329:12 10.428 
2 *329:12 *329:26 25.172 
3 *329:26 *9284:A2 9.836 
4 *329:26 *329:37 1.596 
5 *329:37 *9285:A2 9.38 
6 *329:37 *9649:I 15.688 
7 *329:12 *9283:A2 14.64 
*END

*D_NET *330 0.0671101
*CONN
*I *9300:A2 I *D gf180mcu_fd_sc_mcu7t5v0__and2_1
*I *9298:A2 I *D gf180mcu_fd_sc_mcu7t5v0__and2_1
*I *9296:A2 I *D gf180mcu_fd_sc_mcu7t5v0__and2_1
*I *9295:A2 I *D gf180mcu_fd_sc_mcu7t5v0__and2_1
*I *9294:A2 I *D gf180mcu_fd_sc_mcu7t5v0__and2_1
*I *9293:A2 I *D gf180mcu_fd_sc_mcu7t5v0__and2_1
*I *9297:A2 I *D gf180mcu_fd_sc_mcu7t5v0__and2_1
*I *9299:A2 I *D gf180mcu_fd_sc_mcu7t5v0__and2_1
*I *9292:ZN O *D gf180mcu_fd_sc_mcu7t5v0__nor3_4
*CAP
1 *9300:A2 0.00311197
2 *9298:A2 0
3 *9296:A2 0
4 *9295:A2 0
5 *9294:A2 0
6 *9293:A2 0.000730574
7 *9297:A2 0
8 *9299:A2 0
9 *9292:ZN 0.000986415
10 *330:64 0.000792495
11 *330:60 0.000235526
12 *330:50 0.000243138
13 *330:46 0.00252666
14 *330:44 0.00252157
15 *330:35 0.00213534
16 *330:25 0.0022396
17 *330:10 0.00112352
18 *330:6 0.00505319
19 *9293:A2 *9294:A1 0.000783109
20 *9293:A2 *9296:A1 0.000603996
21 *9293:A2 *498:12 3.03414e-05
22 *9300:A2 *9634:D[7] 0.000988356
23 *9300:A2 *435:14 0.000433305
24 *9300:A2 *453:14 5.18727e-05
25 *330:6 *453:14 0.000716095
26 *330:10 *9299:A1 0.0014928
27 *330:10 *9643:I 0.00062633
28 *330:10 *435:14 0.000551476
29 *330:10 *443:41 0.000607499
30 *330:10 *556:10 4.78829e-05
31 *330:25 *9167:A1 0.000279004
32 *330:25 *9645:I 0.000780332
33 *330:25 *556:10 0.00110252
34 *330:35 *413:28 0
35 *330:35 *434:25 0.00816924
36 *330:35 *434:29 0.00218204
37 *330:44 *9297:A1 2.96621e-05
38 *330:46 *9147:A2 0.000209931
39 *330:46 *9634:D[3] 0.00273636
40 *330:46 *9634:D[1] 0.00166966
41 *330:46 *434:46 0.0012528
42 *330:46 *434:50 0.000421411
43 *330:46 *498:12 0.00385123
44 *330:50 *9634:D[3] 4.58601e-06
45 *330:60 *9147:A1 3.22131e-05
46 *330:60 *9295:A1 2.96621e-05
47 *330:60 *9296:A1 0.00392806
48 *330:60 *9634:D[2] 4.58601e-06
49 *330:60 *9634:D[1] 0.00199366
50 *330:64 *9296:A1 4.02664e-05
51 *330:64 *9634:D[1] 0.00033338
52 *330:64 *498:12 0.000123763
53 *9169:A1 *330:46 0.00574168
54 *261:35 *330:10 0.000151949
55 *261:35 *330:25 0.000399963
56 *261:41 *330:46 0.00300911
*RES
1 *9292:ZN *330:6 11.72 
2 *330:6 *330:10 16.432 
3 *330:10 *9299:A2 9 
4 *330:10 *330:25 8.984 
5 *330:25 *330:35 36.132 
6 *330:35 *9297:A2 4.5 
7 *330:35 *330:44 4.88 
8 *330:44 *330:46 57.532 
9 *330:46 *330:50 4.88 
10 *330:50 *330:60 19.412 
11 *330:60 *330:64 5.792 
12 *330:64 *9293:A2 17.36 
13 *330:64 *9294:A2 9 
14 *330:60 *9295:A2 4.5 
15 *330:50 *9296:A2 4.5 
16 *330:25 *9298:A2 4.5 
17 *330:6 *9300:A2 35.464 
*END

*D_NET *331 0.0569284
*CONN
*I *9310:A2 I *D gf180mcu_fd_sc_mcu7t5v0__and2_1
*I *9309:A2 I *D gf180mcu_fd_sc_mcu7t5v0__and2_1
*I *9308:A2 I *D gf180mcu_fd_sc_mcu7t5v0__and2_1
*I *9307:A2 I *D gf180mcu_fd_sc_mcu7t5v0__and2_1
*I *9306:A2 I *D gf180mcu_fd_sc_mcu7t5v0__and2_1
*I *9305:A2 I *D gf180mcu_fd_sc_mcu7t5v0__and2_1
*I *9304:A2 I *D gf180mcu_fd_sc_mcu7t5v0__and2_1
*I *9303:A2 I *D gf180mcu_fd_sc_mcu7t5v0__and2_1
*I *9302:ZN O *D gf180mcu_fd_sc_mcu7t5v0__nor3_4
*CAP
1 *9310:A2 0.00122396
2 *9309:A2 5.18491e-05
3 *9308:A2 0
4 *9307:A2 4.24085e-05
5 *9306:A2 0
6 *9305:A2 0
7 *9304:A2 0
8 *9303:A2 0.00161103
9 *9302:ZN 0.00233053
10 *331:80 0.00151935
11 *331:67 0.000777343
12 *331:52 0.00301663
13 *331:50 0.00255234
14 *331:39 0.00303316
15 *331:30 0.00328546
16 *331:21 0.00310784
17 *331:10 0.00668518
18 *9303:A2 *9635:D[0] 0.00087024
19 *9309:A2 *9635:D[6] 1.08231e-05
20 *9310:A2 *505:12 0.00370928
21 *9310:A2 *507:14 0
22 *331:10 *414:17 0.000285843
23 *331:21 *9304:A1 0.000140696
24 *331:39 *9188:A1 0.0004317
25 *331:39 *9192:A1 0.00114515
26 *331:50 *9192:A1 0.000109574
27 *331:50 *505:12 0.000247064
28 *331:52 *9192:A1 0.000184039
29 *331:52 *9208:A1 4.02664e-05
30 *331:52 *9208:A2 0.000341755
31 *331:52 *9635:D[5] 8.8608e-05
32 *331:52 *9635:D[4] 0.00607519
33 *331:52 *437:21 2.62889e-05
34 *331:52 *437:30 0.00327925
35 *331:52 *437:41 1.94858e-05
36 *331:52 *437:52 1.6848e-05
37 *331:52 *505:12 0.00545909
38 *331:67 *9208:A1 0.00143261
39 *331:67 *9635:D[5] 0.00240998
40 *331:67 *505:12 5.96894e-05
41 *331:80 *9208:A1 8.67139e-05
42 *331:80 *9635:D[6] 0.000311652
43 *331:80 *505:12 7.50415e-05
44 *331:80 *507:14 0
45 *278:69 *331:52 0.000622191
46 *278:84 *331:52 0.000212291
*RES
1 *9302:ZN *331:10 23.744 
2 *331:10 *9303:A2 20.476 
3 *331:10 *331:21 19.684 
4 *331:21 *9304:A2 9 
5 *331:21 *331:30 2.204 
6 *331:30 *9305:A2 9 
7 *331:30 *331:39 26.22 
8 *331:39 *9306:A2 9 
9 *331:39 *331:50 1.748 
10 *331:50 *331:52 53.2 
11 *331:52 *9307:A2 9.228 
12 *331:52 *331:67 17.42 
13 *331:67 *9308:A2 4.5 
14 *331:67 *331:80 6.4 
15 *331:80 *9309:A2 9.228 
16 *331:80 *9310:A2 20.4 
*END

*D_NET *332 0.0674149
*CONN
*I *9338:A3 I *D gf180mcu_fd_sc_mcu7t5v0__nand3_1
*I *9334:A3 I *D gf180mcu_fd_sc_mcu7t5v0__nand3_1
*I *9330:A3 I *D gf180mcu_fd_sc_mcu7t5v0__nand3_1
*I *9326:A3 I *D gf180mcu_fd_sc_mcu7t5v0__nand3_1
*I *9322:A3 I *D gf180mcu_fd_sc_mcu7t5v0__nand3_1
*I *9318:A3 I *D gf180mcu_fd_sc_mcu7t5v0__nand3_1
*I *9314:A3 I *D gf180mcu_fd_sc_mcu7t5v0__nand3_1
*I *9342:A3 I *D gf180mcu_fd_sc_mcu7t5v0__nand3_1
*I *9313:Z O *D gf180mcu_fd_sc_mcu7t5v0__and2_1
*CAP
1 *9338:A3 2.55079e-05
2 *9334:A3 0
3 *9330:A3 6.9993e-05
4 *9326:A3 0
5 *9322:A3 0
6 *9318:A3 0
7 *9314:A3 7.70404e-05
8 *9342:A3 8.9052e-05
9 *9313:Z 0.00307614
10 *332:49 0.000136053
11 *332:47 0.000596379
12 *332:45 0.00108268
13 *332:43 0.000696475
14 *332:35 0.00013978
15 *332:29 0.000165091
16 *332:18 0.00324616
17 *9314:A3 *9314:A2 0.00135257
18 *9314:A3 *9318:A1 0.00123239
19 *9314:A3 *9322:A1 5.19228e-05
20 *9314:A3 *433:24 0.000142809
21 *9330:A3 *9330:A1 5.87561e-06
22 *9330:A3 *9330:A2 7.3102e-05
23 *9330:A3 *9464:I 0.000299217
24 *9338:A3 *9338:A1 2.9378e-06
25 *9338:A3 *9632:D[6] 7.83779e-05
26 *9342:A3 *9340:A1 0.000308746
27 *9342:A3 *9342:A1 8.22031e-06
28 *332:18 *9213:A1 7.87826e-06
29 *332:18 *9243:A1 3.18726e-05
30 *332:18 *9338:A1 0.000181009
31 *332:18 *9342:A1 7.45328e-07
32 *332:18 *9582:I 0.000242781
33 *332:18 *9632:D[7] 0
34 *332:18 *402:26 0.00272079
35 *332:18 *513:37 2.34305e-05
36 *332:18 *513:49 1.33951e-05
37 *332:18 *514:48 0.000206341
38 *332:18 *514:69 0.000386575
39 *332:18 *650:10 0
40 *332:29 *9661:I 0.000218557
41 *332:29 *433:10 0.00017483
42 *332:29 *433:12 0.000151957
43 *332:35 *9334:A1 1.15244e-05
44 *332:35 *9336:A1 7.45328e-07
45 *332:35 *9632:D[6] 0.00013063
46 *332:35 *9632:D[5] 0
47 *332:35 *9661:I 6.54437e-05
48 *332:35 *433:12 0.000135941
49 *332:43 *9632:A[4] 0.0028975
50 *332:43 *9663:I 0.000289395
51 *332:43 *433:12 0.000215472
52 *332:43 *433:16 0.00172249
53 *332:45 *9632:A[7] 0.0112379
54 *332:45 *9632:A[6] 0.000292487
55 *332:45 *9632:A[4] 0.003332
56 *332:45 *9632:A[1] 0.000948122
57 *332:45 *9663:I 0.000654884
58 *332:45 *433:16 0.000145096
59 *332:45 *433:18 0.0227875
60 *332:47 *9326:A1 0
61 *332:47 *433:18 0.00014967
62 *332:47 *433:20 0.00290261
63 *332:49 *9322:A1 0.000104569
64 *332:49 *433:20 0.00014967
65 *332:49 *433:24 0.000317618
66 tl_o[8] *332:18 0.000102407
67 *9241:B2 *332:18 0
68 *9244:B *332:18 1.26706e-05
69 *9261:A4 *332:18 0.000162858
70 *9311:A1 *332:18 0.000141627
71 *9632:WEN[7] *332:18 0
72 *3:50 *332:18 3.10417e-05
73 *189:34 *332:18 0
74 *296:14 *332:18 0.000322219
75 *304:18 *332:18 0.000834062
*RES
1 *9313:Z *332:18 42.912 
2 *332:18 *9342:A3 5.336 
3 *332:18 *332:29 5.792 
4 *332:29 *332:35 5.26 
5 *332:35 *332:43 12.48 
6 *332:43 *332:45 55.252 
7 *332:45 *332:47 7.372 
8 *332:47 *332:49 1.14 
9 *332:49 *9314:A3 12.724 
10 *332:49 *9318:A3 9 
11 *332:47 *9322:A3 9 
12 *332:45 *9326:A3 9 
13 *332:43 *9330:A3 9.836 
14 *332:35 *9334:A3 4.5 
15 *332:29 *9338:A3 9.228 
*END

*D_NET *333 0.00312477
*CONN
*I *9316:A1 I *D gf180mcu_fd_sc_mcu7t5v0__nand2_1
*I *9314:ZN O *D gf180mcu_fd_sc_mcu7t5v0__nand3_1
*CAP
1 *9316:A1 0.00145318
2 *9314:ZN 0.00145318
3 *9316:A1 *9314:A1 4.27813e-05
4 *9316:A1 *9320:A1 0
5 *9316:A1 *9324:A1 0.000175636
*RES
1 *9314:ZN *9316:A1 27.196 
*END

*D_NET *334 0.000694255
*CONN
*I *9316:A2 I *D gf180mcu_fd_sc_mcu7t5v0__nand2_1
*I *9315:ZN O *D gf180mcu_fd_sc_mcu7t5v0__nand2_1
*CAP
1 *9316:A2 8.9222e-05
2 *9315:ZN 8.9222e-05
3 *9316:A2 *9315:A1 0.000148709
4 *9316:A2 *9324:A1 0.000367102
*RES
1 *9315:ZN *9316:A2 19.748 
*END

*D_NET *335 0.0038081
*CONN
*I *9320:A1 I *D gf180mcu_fd_sc_mcu7t5v0__nand2_1
*I *9318:ZN O *D gf180mcu_fd_sc_mcu7t5v0__nand3_1
*CAP
1 *9320:A1 0.00118541
2 *9318:ZN 0.00118541
3 *9320:A1 *9314:A2 0.00013063
4 *9320:A1 *9322:A1 2.33043e-05
5 *9320:A1 *9324:A1 0
6 *9320:A1 *9328:A1 0.000441055
7 *9320:A1 *433:20 0.000743225
8 *9320:A1 *433:24 9.90639e-05
9 *9316:A1 *9320:A1 0
*RES
1 *9318:ZN *9320:A1 28.868 
*END

*D_NET *336 0.00159791
*CONN
*I *9320:A2 I *D gf180mcu_fd_sc_mcu7t5v0__nand2_1
*I *9319:ZN O *D gf180mcu_fd_sc_mcu7t5v0__nand2_1
*CAP
1 *9320:A2 0.000503345
2 *9319:ZN 0.000503345
3 *9320:A2 *9319:A2 0.000108522
4 *9320:A2 *9323:A1 0
5 *9320:A2 *9323:A2 0
6 *9320:A2 *9324:A2 1.34641e-06
7 *9320:A2 *9328:A1 0.000423788
8 *9320:A2 *424:39 5.75659e-05
*RES
1 *9319:ZN *9320:A2 22.104 
*END

*D_NET *337 0.00306873
*CONN
*I *9324:A1 I *D gf180mcu_fd_sc_mcu7t5v0__nand2_1
*I *9322:ZN O *D gf180mcu_fd_sc_mcu7t5v0__nand3_1
*CAP
1 *9324:A1 0.00117513
2 *9322:ZN 0.00117513
3 *9324:A1 *9315:A1 6.12127e-06
4 *9324:A1 *9315:A2 0.000127282
5 *9324:A1 *9322:A1 3.42838e-05
6 *9316:A1 *9324:A1 0.000175636
7 *9316:A2 *9324:A1 0.000367102
8 *9320:A1 *9324:A1 0
9 *197:10 *9324:A1 0
10 *199:10 *9324:A1 8.05328e-06
*RES
1 *9322:ZN *9324:A1 26.664 
*END

*D_NET *338 0.00144107
*CONN
*I *9324:A2 I *D gf180mcu_fd_sc_mcu7t5v0__nand2_1
*I *9323:ZN O *D gf180mcu_fd_sc_mcu7t5v0__nand2_1
*CAP
1 *9324:A2 0.000250303
2 *9323:ZN 0.000250303
3 *9324:A2 *9323:A1 0.000669179
4 *9324:A2 *424:39 9.17202e-06
5 *9320:A2 *9324:A2 1.34641e-06
6 *198:12 *9324:A2 0.000165002
7 *199:10 *9324:A2 9.57657e-05
*RES
1 *9323:ZN *9324:A2 20.888 
*END

*D_NET *339 0.00284878
*CONN
*I *9328:A1 I *D gf180mcu_fd_sc_mcu7t5v0__nand2_1
*I *9326:ZN O *D gf180mcu_fd_sc_mcu7t5v0__nand3_1
*CAP
1 *9328:A1 0.000970573
2 *9326:ZN 0.000970573
3 *9328:A1 *9326:A1 4.27914e-05
4 *9328:A1 *424:33 0
5 *9328:A1 *424:39 0
6 *9320:A1 *9328:A1 0.000441055
7 *9320:A2 *9328:A1 0.000423788
*RES
1 *9326:ZN *9328:A1 25.524 
*END

*D_NET *340 0.000354545
*CONN
*I *9328:A2 I *D gf180mcu_fd_sc_mcu7t5v0__nand2_1
*I *9327:ZN O *D gf180mcu_fd_sc_mcu7t5v0__nand2_1
*CAP
1 *9328:A2 7.96754e-05
2 *9327:ZN 7.96754e-05
3 *9328:A2 *9327:A1 0.000195195
*RES
1 *9327:ZN *9328:A2 9.988 
*END

*D_NET *341 0.00279201
*CONN
*I *9332:A1 I *D gf180mcu_fd_sc_mcu7t5v0__nand2_1
*I *9330:ZN O *D gf180mcu_fd_sc_mcu7t5v0__nand3_1
*CAP
1 *9332:A1 0.000618116
2 *9330:ZN 0.000618116
3 *9332:A1 *9331:A1 0.000279004
4 *9332:A1 *9464:I 0.00010751
5 *9332:A1 *9651:I 0
6 *9332:A1 *378:8 0.00011955
7 *9332:A1 *424:29 0.00104971
*RES
1 *9330:ZN *9332:A1 24.688 
*END

*D_NET *342 0.000691381
*CONN
*I *9332:A2 I *D gf180mcu_fd_sc_mcu7t5v0__nand2_1
*I *9331:ZN O *D gf180mcu_fd_sc_mcu7t5v0__nand2_1
*CAP
1 *9332:A2 5.44962e-06
2 *9331:ZN 5.44962e-06
3 *9332:A2 *9331:A1 0.000340241
4 *9332:A2 *424:29 0.000340241
*RES
1 *9331:ZN *9332:A2 18.836 
*END

*D_NET *343 0.0038104
*CONN
*I *9336:A1 I *D gf180mcu_fd_sc_mcu7t5v0__nand2_1
*I *9334:ZN O *D gf180mcu_fd_sc_mcu7t5v0__nand3_1
*CAP
1 *9336:A1 0.000856076
2 *9334:ZN 0.000856076
3 *9336:A1 *9331:A2 2.22758e-05
4 *9336:A1 *9632:D[6] 0
5 *9336:A1 *9632:D[5] 0.000190336
6 *9336:A1 *378:71 0.000632728
7 *9336:A1 *378:80 0.000680481
8 *9336:A1 *449:16 0.000292033
9 *9333:I0 *9336:A1 6.55118e-05
10 *9404:D *9336:A1 4.58601e-06
11 *201:10 *9336:A1 5.07376e-05
12 *202:12 *9336:A1 0.000158809
13 *332:35 *9336:A1 7.45328e-07
*RES
1 *9334:ZN *9336:A1 25.448 
*END

*D_NET *344 0.000115823
*CONN
*I *9336:A2 I *D gf180mcu_fd_sc_mcu7t5v0__nand2_1
*I *9335:ZN O *D gf180mcu_fd_sc_mcu7t5v0__nand2_1
*CAP
1 *9336:A2 3.98076e-05
2 *9335:ZN 3.98076e-05
3 *9336:A2 *460:30 3.62081e-05
*RES
1 *9335:ZN *9336:A2 9.38 
*END

*D_NET *345 0.00243564
*CONN
*I *9340:A1 I *D gf180mcu_fd_sc_mcu7t5v0__nand2_1
*I *9338:ZN O *D gf180mcu_fd_sc_mcu7t5v0__nand3_1
*CAP
1 *9340:A1 0.000551295
2 *9338:ZN 0.000551295
3 *9340:A1 *9271:A1 0
4 *9340:A1 *9271:A2 0
5 *9340:A1 *9339:A1 1.49066e-06
6 *9340:A1 *9340:A2 1.2018e-05
7 *9340:A1 *9343:A1 0.000653985
8 *9340:A1 *9343:A2 5.9359e-05
9 *9340:A1 *9632:D[6] 0
10 *9340:A1 *438:12 0.000297452
11 *9272:A3 *9340:A1 0
12 *9342:A3 *9340:A1 0.000308746
*RES
1 *9338:ZN *9340:A1 13.788 
*END

*D_NET *346 0.00072449
*CONN
*I *9340:A2 I *D gf180mcu_fd_sc_mcu7t5v0__nand2_1
*I *9339:ZN O *D gf180mcu_fd_sc_mcu7t5v0__nand2_1
*CAP
1 *9340:A2 0.000141107
2 *9339:ZN 0.000141107
3 *9340:A2 *9335:A1 0.000255714
4 *9340:A2 *9339:A1 0.00011704
5 *9340:A2 *9343:A1 5.75052e-05
6 *9340:A1 *9340:A2 1.2018e-05
*RES
1 *9339:ZN *9340:A2 10.596 
*END

*D_NET *347 0.00309333
*CONN
*I *9344:A1 I *D gf180mcu_fd_sc_mcu7t5v0__nand2_1
*I *9342:ZN O *D gf180mcu_fd_sc_mcu7t5v0__nand3_1
*CAP
1 *9344:A1 0.000291205
2 *9342:ZN 0.000291205
3 *9344:A1 *9344:A2 0.000690295
4 *9344:A1 *9406:CLK 1.76797e-05
5 *9344:A1 *9577:I 0.000158214
6 *9344:A1 *9651:I 0.000571577
7 *9344:A1 *424:8 4.73876e-05
8 *9344:A1 *463:12 0.000596614
9 *9405:D *9344:A1 0.00023197
10 *202:12 *9344:A1 0.000197183
*RES
1 *9342:ZN *9344:A1 22.56 
*END

*D_NET *348 0.00251566
*CONN
*I *9344:A2 I *D gf180mcu_fd_sc_mcu7t5v0__nand2_1
*I *9343:ZN O *D gf180mcu_fd_sc_mcu7t5v0__nand2_1
*CAP
1 *9344:A2 0.000185529
2 *9343:ZN 0.000185529
3 *9344:A2 *9335:A2 7.88344e-05
4 *9344:A2 *9406:CLK 9.88736e-06
5 *9344:A2 *375:74 0.000427096
6 *9344:A2 *424:8 0.000142673
7 *9344:A2 *424:19 5.13352e-06
8 *9344:A2 *438:12 0.000790684
9 *9344:A1 *9344:A2 0.000690295
*RES
1 *9343:ZN *9344:A2 22.104 
*END

*D_NET *349 0.00255356
*CONN
*I *9348:A1 I *D gf180mcu_fd_sc_mcu7t5v0__nand2_1
*I *9346:ZN O *D gf180mcu_fd_sc_mcu7t5v0__nand3_1
*CAP
1 *9348:A1 0.00048663
2 *9346:ZN 0.00048663
3 *9348:A1 *9578:I 0
4 *9348:A1 *9596:I 0
5 *9348:A1 *9660:I 0.000155724
6 *9348:A1 *371:22 0.00115919
7 *9348:A1 *436:10 0
8 *9348:A1 *448:61 0.000265392
*RES
1 *9346:ZN *9348:A1 22.636 
*END

*D_NET *350 0.000135825
*CONN
*I *9348:A2 I *D gf180mcu_fd_sc_mcu7t5v0__nand2_1
*I *9347:ZN O *D gf180mcu_fd_sc_mcu7t5v0__nand2_1
*CAP
1 *9348:A2 6.79126e-05
2 *9347:ZN 6.79126e-05
*RES
1 *9347:ZN *9348:A2 9.38 
*END

*D_NET *351 0.0044092
*CONN
*I *9352:A1 I *D gf180mcu_fd_sc_mcu7t5v0__nand2_1
*I *9350:ZN O *D gf180mcu_fd_sc_mcu7t5v0__nand3_1
*CAP
1 *9352:A1 0.000665442
2 *9350:ZN 0.000665442
3 *9352:A1 *9185:A1 0.000161414
4 *9352:A1 *9347:A2 3.6222e-05
5 *9352:A1 *9356:A2 0.000404522
6 *9352:A1 *9411:CLK 0.000165226
7 *9352:A1 *9633:D[2] 0.00013909
8 *9352:A1 *9633:D[1] 0
9 *9352:A1 *381:83 1.20889e-05
10 *9352:A1 *440:10 0.000249609
11 *9352:A1 *448:49 0.001023
12 *9353:I0 *9352:A1 1.5015e-05
13 *9409:D *9352:A1 0.000122265
14 *207:12 *9352:A1 0.00074986
*RES
1 *9350:ZN *9352:A1 26.284 
*END

*D_NET *352 0.000551244
*CONN
*I *9352:A2 I *D gf180mcu_fd_sc_mcu7t5v0__nand2_1
*I *9351:ZN O *D gf180mcu_fd_sc_mcu7t5v0__nand2_1
*CAP
1 *9352:A2 9.75593e-05
2 *9351:ZN 9.75593e-05
3 *9352:A2 *9355:A1 0.000285856
4 *9352:A2 *9355:A2 7.02696e-05
5 *9352:A2 *9411:CLK 0
*RES
1 *9351:ZN *9352:A2 19.14 
*END

*D_NET *353 0.000908961
*CONN
*I *9356:A1 I *D gf180mcu_fd_sc_mcu7t5v0__nand2_1
*I *9354:ZN O *D gf180mcu_fd_sc_mcu7t5v0__nand3_1
*CAP
1 *9356:A1 0.000149794
2 *9354:ZN 0.000149794
3 *9356:A1 *9347:A2 0.000348023
4 *9356:A1 *9633:D[1] 0
5 *9356:A1 *431:12 0.00017209
6 *222:6 *9356:A1 8.92613e-05
*RES
1 *9354:ZN *9356:A1 20.28 
*END

*D_NET *354 0.00111163
*CONN
*I *9356:A2 I *D gf180mcu_fd_sc_mcu7t5v0__nand2_1
*I *9355:ZN O *D gf180mcu_fd_sc_mcu7t5v0__nand2_1
*CAP
1 *9356:A2 0.000290139
2 *9355:ZN 0.000290139
3 *9356:A2 *9355:A2 1.02578e-05
4 *9356:A2 *9411:CLK 5.40519e-05
5 *9356:A2 *9633:D[1] 0
6 *9356:A2 *428:27 6.25174e-05
7 *9352:A1 *9356:A2 0.000404522
8 *9409:D *9356:A2 0
*RES
1 *9355:ZN *9356:A2 11.432 
*END

*D_NET *355 0.00317788
*CONN
*I *9360:A1 I *D gf180mcu_fd_sc_mcu7t5v0__nand2_1
*I *9358:ZN O *D gf180mcu_fd_sc_mcu7t5v0__nand3_1
*CAP
1 *9360:A1 0.000598807
2 *9358:ZN 0.000598807
3 *9360:A1 *428:8 0
4 *9360:A1 *466:18 0.000977764
5 *9360:A1 *468:22 0.000989295
6 *9360:A1 *470:14 1.32071e-05
*RES
1 *9358:ZN *9360:A1 23.472 
*END

*D_NET *356 0.000547243
*CONN
*I *9360:A2 I *D gf180mcu_fd_sc_mcu7t5v0__nand2_1
*I *9359:ZN O *D gf180mcu_fd_sc_mcu7t5v0__nand2_1
*CAP
1 *9360:A2 6.71699e-05
2 *9359:ZN 6.71699e-05
3 *9360:A2 *428:53 0.000412903
*RES
1 *9359:ZN *9360:A2 18.988 
*END

*D_NET *357 0.00419033
*CONN
*I *9364:A1 I *D gf180mcu_fd_sc_mcu7t5v0__nand2_1
*I *9362:ZN O *D gf180mcu_fd_sc_mcu7t5v0__nand3_1
*CAP
1 *9364:A1 0.00116193
2 *9362:ZN 0.00116193
3 *9364:A1 *9368:A1 0.000268872
4 *9364:A1 *9368:A2 4.58601e-06
5 *9364:A1 *9372:A1 0.000152137
6 *9364:A1 *430:36 0
7 *9364:A1 *430:49 0
8 *9364:A1 *459:14 8.97421e-05
9 *9364:A1 *462:14 0.00135114
*RES
1 *9362:ZN *9364:A1 27.652 
*END

*D_NET *358 0.000109345
*CONN
*I *9364:A2 I *D gf180mcu_fd_sc_mcu7t5v0__nand2_1
*I *9363:ZN O *D gf180mcu_fd_sc_mcu7t5v0__nand2_1
*CAP
1 *9364:A2 5.46724e-05
2 *9363:ZN 5.46724e-05
*RES
1 *9363:ZN *9364:A2 9.38 
*END

*D_NET *359 0.00344921
*CONN
*I *9368:A1 I *D gf180mcu_fd_sc_mcu7t5v0__nand2_1
*I *9366:ZN O *D gf180mcu_fd_sc_mcu7t5v0__nand3_1
*CAP
1 *9368:A1 0.0012858
2 *9366:ZN 0.0012858
3 *9368:A1 *9366:A1 3.14479e-05
4 *9368:A1 *9368:A2 2.6126e-05
5 *9368:A1 *9372:A1 0.000551166
6 *9364:A1 *9368:A1 0.000268872
*RES
1 *9366:ZN *9368:A1 27.652 
*END

*D_NET *360 0.000366543
*CONN
*I *9368:A2 I *D gf180mcu_fd_sc_mcu7t5v0__nand2_1
*I *9367:ZN O *D gf180mcu_fd_sc_mcu7t5v0__nand2_1
*CAP
1 *9368:A2 0.000143876
2 *9367:ZN 0.000143876
3 *9364:A1 *9368:A2 4.58601e-06
4 *9368:A1 *9368:A2 2.6126e-05
5 *210:10 *9368:A2 4.80781e-05
*RES
1 *9367:ZN *9368:A2 9.912 
*END

*D_NET *361 0.00548958
*CONN
*I *9372:A1 I *D gf180mcu_fd_sc_mcu7t5v0__nand2_1
*I *9370:ZN O *D gf180mcu_fd_sc_mcu7t5v0__nand3_1
*CAP
1 *9372:A1 0.00113932
2 *9370:ZN 0.00113932
3 *9372:A1 *9143:A1 0.00015961
4 *9372:A1 *9143:A2 0.000450829
5 *9372:A1 *9362:A1 1.3758e-05
6 *9372:A1 *9366:A1 5.87561e-06
7 *9372:A1 *430:49 6.9704e-05
8 *9144:A1 *9372:A1 0.00180128
9 *9364:A1 *9372:A1 0.000152137
10 *9368:A1 *9372:A1 0.000551166
11 *212:12 *9372:A1 6.57222e-06
*RES
1 *9370:ZN *9372:A1 30.16 
*END

*D_NET *362 0.000240558
*CONN
*I *9372:A2 I *D gf180mcu_fd_sc_mcu7t5v0__nand2_1
*I *9371:ZN O *D gf180mcu_fd_sc_mcu7t5v0__nand2_1
*CAP
1 *9372:A2 0.000120279
2 *9371:ZN 0.000120279
*RES
1 *9371:ZN *9372:A2 9.836 
*END

*D_NET *363 0.00507158
*CONN
*I *9388:B I *D gf180mcu_fd_sc_mcu7t5v0__oai21_1
*I *9387:ZN O *D gf180mcu_fd_sc_mcu7t5v0__nand2_1
*CAP
1 *9388:B 0.000557838
2 *9387:ZN 0.000557838
3 *9388:B *9224:A2 2.42251e-05
4 *9388:B *9591:I 0.000584986
5 *9388:B *9639:I 0.000392652
6 *9388:B *460:150 0.000226133
7 *9388:B *512:94 0.000342892
8 *9262:B *9388:B 0.000413258
9 *9393:S *9388:B 0.00109815
10 *9477:I *9388:B 0.000206341
11 *295:20 *9388:B 0.000667266
*RES
1 *9387:ZN *9388:B 26.132 
*END

*D_NET *364 0.0114734
*CONN
*I *9395:B I *D gf180mcu_fd_sc_mcu7t5v0__oai21_1
*I *9394:ZN O *D gf180mcu_fd_sc_mcu7t5v0__nand2_1
*CAP
1 *9395:B 0.00157675
2 *9394:ZN 0.00157675
3 *9395:B *9226:A1 0
4 *9395:B *9226:A2 0.000325723
5 *9395:B *9230:A2 0.00016892
6 *9395:B *9394:A2 4.47459e-05
7 *9395:B *9395:A1 7.30844e-05
8 *9395:B *9577:I 2.03665e-05
9 *9395:B *9592:I 5.71374e-05
10 *9395:B *9632:D[7] 0.000185193
11 *9395:B *372:18 0.000341949
12 *9395:B *405:31 0.00109197
13 *9395:B *422:85 0
14 *9395:B *511:8 7.3227e-05
15 *9395:B *594:32 0.00518492
16 tl_o[0] *9395:B 0.000152946
17 tl_o[3] *9395:B 0.00018513
18 *9395:A2 *9395:B 1.91917e-06
19 *9537:I *9395:B 0.000215464
20 *328:12 *9395:B 0.000197186
*RES
1 *9394:ZN *9395:B 37.988 
*END

*D_NET *365 0.0499335
*CONN
*I *9666:I I *D gf180mcu_fd_sc_mcu7t5v0__buf_8
*I *9665:I I *D gf180mcu_fd_sc_mcu7t5v0__buf_8
*I *9223:Z O *D gf180mcu_fd_sc_mcu7t5v0__and2_2
*CAP
1 *9666:I 0.00306586
2 *9665:I 0.00467046
3 *9223:Z 0.0003502
4 *365:14 0.00808652
5 *9665:I *9343:A2 0.000130472
6 *9665:I *9651:I 0.00117711
7 *9665:I *9655:I 0.000245591
8 *9665:I *9657:I 0.00857282
9 *9665:I *9658:I 0.000595572
10 *9665:I *9659:I 0.00208563
11 *9665:I *9660:I 0.00159877
12 *9665:I *9663:I 0
13 *9665:I *371:22 0.000257178
14 *9665:I *375:74 0.000152638
15 *9665:I *438:33 2.31157e-05
16 *9665:I *463:12 0.000834514
17 *9666:I *9252:A1 0.00023201
18 *9666:I *9254:A1 0.00033556
19 *9666:I *9282:A1 0.000161578
20 *9666:I *9282:A2 0.000153628
21 *9666:I *9578:I 0.000240142
22 *9666:I *9658:I 0.0150225
23 *9666:I *375:74 0.00012719
24 *9666:I *375:94 0.000200661
25 *9666:I *438:119 0.000148925
26 *9666:I *449:129 0.000142301
27 *9666:I *512:26 0.000131989
28 *365:14 *369:18 0
29 *365:14 *449:38 0
30 *365:14 *594:32 3.91978e-05
31 tl_o[14] *9665:I 0.000201537
32 *9272:A3 *9665:I 0.000133308
33 *9388:A1 *9666:I 0.000114894
34 *9395:A2 *9665:I 0.000250414
35 *9473:I *9666:I 0.00022961
36 *9481:I *365:14 8.69862e-05
37 *248:29 *9666:I 0.000134649
*RES
1 *9223:Z *365:14 19.8159 
2 *365:14 *9665:I 47.9489 
3 *365:14 *9666:I 30.7589 
*END

*D_NET *366 0.053143
*CONN
*I *9664:I I *D gf180mcu_fd_sc_mcu7t5v0__buf_8
*I *9663:I I *D gf180mcu_fd_sc_mcu7t5v0__buf_8
*I *9224:Z O *D gf180mcu_fd_sc_mcu7t5v0__and2_2
*CAP
1 *9664:I 0.00312557
2 *9663:I 0.00636681
3 *9224:Z 0.00105831
4 *366:16 0.0105507
5 *9663:I *9233:A1 0.00024118
6 *9663:I *9330:A1 0.000149771
7 *9663:I *9394:A1 0.000151515
8 *9663:I *9632:A[6] 0.00116543
9 *9663:I *9632:A[4] 0.00138679
10 *9663:I *9632:D[7] 0.000130184
11 *9663:I *9652:I 0.0121721
12 *9663:I *9655:I 5.60652e-05
13 *9663:I *367:33 0.000397523
14 *9663:I *426:12 0.000146472
15 *9663:I *433:10 0.000161924
16 *9663:I *433:16 0.000224455
17 *9663:I *433:18 0.000606282
18 *9663:I *458:18 0.000940944
19 *9663:I *604:23 0.000570288
20 *9664:I *9138:A2 0.000122054
21 *9664:I *9633:D[1] 0.000130188
22 *9664:I *9652:I 0.00965552
23 *9664:I *9660:I 0
24 *9664:I *367:33 0.000652571
25 *9664:I *439:16 0.000114039
26 *9664:I *466:18 0.000124132
27 *9664:I *495:18 0.000306971
28 *9664:I *599:8 0.000105219
29 *366:16 *506:20 0.00020108
30 *9241:B2 *9663:I 0.000230417
31 *9262:A2 *366:16 0.000124794
32 *9262:B *366:16 0.000185103
33 *9471:I *9664:I 0.000644388
34 *9665:I *9663:I 0
35 *332:43 *9663:I 0.000289395
36 *332:45 *9663:I 0.000654884
*RES
1 *9224:Z *366:16 23.5507 
2 *366:16 *9663:I 40.3625 
3 *366:16 *9664:I 29.2262 
*END

*D_NET *367 0.0391239
*CONN
*I *9662:I I *D gf180mcu_fd_sc_mcu7t5v0__buf_8
*I *9661:I I *D gf180mcu_fd_sc_mcu7t5v0__buf_8
*I *9225:Z O *D gf180mcu_fd_sc_mcu7t5v0__and2_2
*CAP
1 *9662:I 0
2 *9661:I 0.00154233
3 *9225:Z 3.23262e-05
4 *367:33 0.00145816
5 *367:6 0.00303282
6 *9661:I *9342:A1 0.000921591
7 *9661:I *9342:A2 0.00228027
8 *9661:I *9632:A[0] 0.000185225
9 *9661:I *9651:I 0.000139416
10 *9661:I *433:10 7.0472e-05
11 *9661:I *433:12 4.32383e-05
12 *9661:I *433:16 0.0013796
13 *9661:I *433:18 0.00294075
14 *9661:I *463:12 0.00276143
15 *367:6 *402:26 7.32209e-05
16 *367:33 *9134:A2 0.000146334
17 *367:33 *9138:A2 0.000905084
18 *367:33 *9233:A1 0.00347254
19 *367:33 *9241:A1 4.69874e-05
20 *367:33 *9251:A2 9.34472e-05
21 *367:33 *9260:A2 0.000344758
22 *367:33 *9394:A1 0.000738037
23 *367:33 *9632:D[7] 0.000369984
24 *367:33 *380:47 0.00036575
25 *367:33 *402:26 0.00032786
26 *367:33 *426:12 0.000383994
27 *367:33 *495:18 6.31678e-05
28 *367:33 *506:20 0.000396904
29 *367:33 *594:117 0.000646736
30 *367:33 *599:8 0.000759759
31 *367:33 *604:23 0.00450448
32 *9186:A1 *367:33 0.000271153
33 *9238:A1 *367:6 6.48034e-06
34 *9238:A1 *367:33 1.50277e-05
35 *9245:A3 *367:33 0.000560049
36 *9265:A2 *367:33 0.00189797
37 *9442:D *367:33 0.000427481
38 *9470:I *367:33 0.000578597
39 *9471:I *367:33 0.00360632
40 *9663:I *367:33 0.000397523
41 *9664:I *367:33 0.000652571
42 *332:29 *9661:I 0.000218557
43 *332:35 *9661:I 6.54437e-05
*RES
1 *9225:Z *367:6 4.728 
2 *367:6 *9661:I 47.7 
3 *367:6 *367:33 49.052 
4 *367:33 *9662:I 4.5 
*END

*D_NET *368 0.0444407
*CONN
*I *9660:I I *D gf180mcu_fd_sc_mcu7t5v0__buf_8
*I *9659:I I *D gf180mcu_fd_sc_mcu7t5v0__buf_4
*I *9226:Z O *D gf180mcu_fd_sc_mcu7t5v0__and2_2
*CAP
1 *9660:I 0.00483737
2 *9659:I 0.000401184
3 *9226:Z 4.32651e-05
4 *368:12 0.00528182
5 *9659:I *9655:I 0.00313658
6 *9659:I *9657:I 4.6364e-06
7 *9660:I *9652:I 0.000387868
8 *9660:I *9654:I 0.00154041
9 *9660:I *9655:I 0.00170877
10 *9660:I *9657:I 0.000117658
11 *9660:I *9658:I 0.00610789
12 *9660:I *370:53 0.0002944
13 *9660:I *371:22 0.00140902
14 *9660:I *431:22 0.0050586
15 *9660:I *439:16 0.0100486
16 *9660:I *440:34 0.000222507
17 *9348:A1 *9660:I 0.000155724
18 *9664:I *9660:I 0
19 *9665:I *9659:I 0.00208563
20 *9665:I *9660:I 0.00159877
*RES
1 *9226:Z *368:12 18.171 
2 *368:12 *9659:I 22.4674 
3 *368:12 *9660:I 48.7097 
*END

*D_NET *369 0.0551369
*CONN
*I *9658:I I *D gf180mcu_fd_sc_mcu7t5v0__buf_8
*I *9657:I I *D gf180mcu_fd_sc_mcu7t5v0__buf_8
*I *9227:Z O *D gf180mcu_fd_sc_mcu7t5v0__and2_2
*CAP
1 *9658:I 0.00231922
2 *9657:I 0.00196603
3 *9227:Z 0.000301251
4 *369:18 0.0045865
5 *9657:I *9556:I 0.000169809
6 *9657:I *375:74 0.000732317
7 *9657:I *402:26 8.39112e-05
8 *9657:I *438:29 0.000512246
9 *9657:I *512:32 0.000113906
10 *9658:I *9236:A2 0.00018973
11 *9658:I *9254:A1 0.000201549
12 *9658:I *431:22 0.0107386
13 *369:18 *370:14 0.000525727
14 *369:18 *380:57 0.000830508
15 *369:18 *449:32 1.18127e-05
16 *369:18 *449:38 0.000268494
17 tl_o[14] *369:18 0
18 tl_o[4] *369:18 0.000980135
19 *9250:B *9658:I 0.00017457
20 *9659:I *9657:I 4.6364e-06
21 *9660:I *9657:I 0.000117658
22 *9660:I *9658:I 0.00610789
23 *9665:I *9657:I 0.00857282
24 *9665:I *9658:I 0.000595572
25 *9666:I *9658:I 0.0150225
26 *189:28 *9657:I 9.50578e-06
27 *365:14 *369:18 0
*RES
1 *9227:Z *369:18 22.6441 
2 *369:18 *9657:I 27.3731 
3 *369:18 *9658:I 42.7101 
*END

*D_NET *370 0.0440494
*CONN
*I *9656:I I *D gf180mcu_fd_sc_mcu7t5v0__buf_8
*I *9655:I I *D gf180mcu_fd_sc_mcu7t5v0__buf_4
*I *9228:Z O *D gf180mcu_fd_sc_mcu7t5v0__and2_2
*CAP
1 *9656:I 0.000898566
2 *9655:I 0.00116858
3 *9228:Z 0.000185284
4 *370:53 0.0025751
5 *370:14 0.00303039
6 *9655:I *9234:B 0.00039687
7 *9655:I *9342:A2 0.000117838
8 *9655:I *9577:I 0.000580802
9 *9655:I *9652:I 0.00294696
10 *9655:I *371:22 3.81993e-05
11 *9655:I *432:17 0.000309344
12 *9655:I *438:33 1.67127e-05
13 *9656:I *9654:I 0.00182465
14 *9656:I *440:43 0.0033015
15 *370:14 *380:57 0.00031512
16 *370:14 *438:33 0.000637756
17 *370:14 *449:32 2.99545e-05
18 *370:14 *449:38 0.000194411
19 *370:53 *9135:A1 0.000661682
20 *370:53 *9234:B 0.000679213
21 *370:53 *9346:A1 0.00296481
22 *370:53 *9654:I 0.00139265
23 *370:53 *371:22 0.00010671
24 *370:53 *380:47 2.15998e-06
25 *370:53 *439:16 0.000531604
26 *370:53 *440:21 0.000228415
27 *370:53 *440:34 0.00160987
28 *370:53 *440:43 0.000359984
29 *370:53 *594:12 0.000961764
30 *370:53 *594:117 0.000878149
31 *370:53 *603:10 0.000871418
32 tl_o[14] *9655:I 7.28527e-06
33 tl_o[14] *370:14 2.06707e-06
34 tl_o[4] *370:14 0.000100136
35 *9135:A2 *370:53 1.29136e-05
36 *9186:A1 *370:53 0.00304776
37 *9234:A1 *370:53 0.000105239
38 *9393:I0 *370:53 0.000605631
39 *9470:I *9655:I 0.000247725
40 *9659:I *9655:I 0.00313658
41 *9660:I *9655:I 0.00170877
42 *9660:I *370:53 0.0002944
43 *9663:I *9655:I 5.60652e-05
44 *9665:I *9655:I 0.000245591
45 *245:14 *370:53 4.83197e-05
46 *253:12 *370:53 6.49724e-05
47 *258:20 *370:53 0.00160994
48 *258:29 *370:53 0.00220752
49 *258:40 *370:53 0.000206333
50 *369:18 *370:14 0.000525727
*RES
1 *9228:Z *370:14 21.192 
2 *370:14 *9655:I 35.995 
3 *370:14 *370:53 41.42 
4 *370:53 *9656:I 27.164 
*END

*D_NET *371 0.0403076
*CONN
*I *9653:I I *D gf180mcu_fd_sc_mcu7t5v0__buf_4
*I *9654:I I *D gf180mcu_fd_sc_mcu7t5v0__buf_8
*I *9229:Z O *D gf180mcu_fd_sc_mcu7t5v0__and2_2
*CAP
1 *9653:I 0.000246645
2 *9654:I 0.00324874
3 *9229:Z 0.000234405
4 *371:22 0.00628248
5 *371:8 0.00351479
6 *9653:I *9342:A1 0.00113057
7 *9653:I *9632:D[7] 1.43522e-05
8 *9653:I *433:10 0.00113057
9 *9654:I *431:12 0.000123126
10 *9654:I *436:10 0.000120837
11 *9654:I *470:14 0
12 *371:8 *9272:A1 0.000196843
13 *371:8 *9272:A2 0.000301608
14 *371:8 *9632:D[7] 6.40656e-06
15 *371:8 *372:18 1.62788e-06
16 *371:22 *9221:A2 0.000877741
17 *371:22 *9225:A1 0.000333388
18 *371:22 *9234:B 1.66527e-05
19 *371:22 *9236:A2 0.00104161
20 *371:22 *9251:A1 1.90639e-05
21 *371:22 *9253:A1 0.00170918
22 *371:22 *9254:A1 2.99053e-05
23 *371:22 *9269:A2 0.000232874
24 *371:22 *9346:A2 0.00122957
25 *371:22 *9391:I1 0.000260709
26 *371:22 *9556:I 0.000700594
27 *371:22 *9577:I 0.00222952
28 *371:22 *9578:I 0
29 *371:22 *375:74 0.000365176
30 *371:22 *375:94 1.12113e-05
31 *371:22 *380:35 0.00214167
32 *371:22 *380:43 0.00021974
33 *371:22 *423:8 0.000139876
34 *371:22 *436:10 0.000108934
35 *371:22 *530:22 0.000100387
36 *371:22 *594:12 0.000478105
37 *371:22 *594:117 0.0003071
38 *371:22 *613:22 0.000416085
39 *9186:A2 *9654:I 7.93965e-05
40 *9263:A3 *371:22 0.00077894
41 *9272:A3 *371:8 5.20571e-05
42 *9348:A1 *371:22 0.00115919
43 *9395:A2 *371:22 0.000531015
44 *9441:D *371:22 0.000660146
45 *9655:I *371:22 3.81993e-05
46 *9656:I *9654:I 0.00182465
47 *9660:I *9654:I 0.00154041
48 *9660:I *371:22 0.00140902
49 *9665:I *371:22 0.000257178
50 *189:28 *9653:I 3.67237e-05
51 *189:28 *371:8 3.81596e-05
52 *258:20 *371:22 0.000604329
53 *258:29 *9654:I 0.000220016
54 *258:40 *9654:I 4.92886e-05
55 *328:12 *371:8 7.43203e-06
56 *370:53 *9654:I 0.00139265
57 *370:53 *371:22 0.00010671
*RES
1 *9229:Z *371:8 6.476 
2 *371:8 *371:22 49.948 
3 *371:22 *9654:I 41.68 
4 *371:8 *9653:I 17.452 
*END

*D_NET *372 0.0567475
*CONN
*I *9652:I I *D gf180mcu_fd_sc_mcu7t5v0__buf_8
*I *9651:I I *D gf180mcu_fd_sc_mcu7t5v0__buf_8
*I *9230:Z O *D gf180mcu_fd_sc_mcu7t5v0__and2_2
*CAP
1 *9652:I 0.00273793
2 *9651:I 0.00311418
3 *9230:Z 0.000488146
4 *372:18 0.00634026
5 *9651:I *9343:A2 0.000268227
6 *9651:I *9632:A[0] 0.00154217
7 *9651:I *9632:D[5] 0.000384885
8 *9651:I *375:74 0.000212385
9 *9651:I *424:29 0
10 *9651:I *463:12 0.0060063
11 *9652:I *433:10 0.000444017
12 *9652:I *439:16 0.00198004
13 *9652:I *594:117 0.000208334
14 *372:18 *9230:A1 1.90706e-05
15 *372:18 *9230:A2 9.08447e-05
16 *372:18 *9280:A1 1.17512e-05
17 *372:18 *9405:CLK 0.00041486
18 *372:18 *9577:I 0.000316633
19 *372:18 *9632:D[7] 0.000580028
20 *372:18 *594:32 0.000131142
21 *9186:A1 *9652:I 0.000714663
22 *9272:A3 *9651:I 0.00102706
23 *9272:A3 *372:18 6.23713e-06
24 *9332:A1 *9651:I 0
25 *9333:I0 *372:18 0.000336498
26 *9344:A1 *9651:I 0.000571577
27 *9395:B *372:18 0.000341949
28 *9442:D *9652:I 0.000159933
29 *9447:D *9652:I 0.00034091
30 *9471:I *9652:I 0.000759039
31 *9655:I *9652:I 0.00294696
32 *9660:I *9652:I 0.000387868
33 *9661:I *9651:I 0.000139416
34 *9663:I *9652:I 0.0121721
35 *9664:I *9652:I 0.00965552
36 *9665:I *9651:I 0.00117711
37 *328:12 *372:18 0.000514511
38 *328:20 *372:18 0.000203409
39 *371:8 *372:18 1.62788e-06
*RES
1 *9230:Z *372:18 24.536 
2 *372:18 *9651:I 44.264 
3 *372:18 *9652:I 48.822 
*END

*D_NET *373 0.000799127
*CONN
*I *9456:I I *D gf180mcu_fd_sc_mcu7t5v0__clkbuf_16
*I *9463:Z O *D gf180mcu_fd_sc_mcu7t5v0__clkbuf_16
*CAP
1 *9456:I 8.338e-05
2 *9463:Z 9.28121e-05
3 *373:11 0.000177135
4 *373:6 0.000186567
5 *9183:I0 *9456:I 7.50897e-05
6 *9183:I0 *373:6 7.53241e-05
7 *9183:I0 *373:11 0.000108819
*RES
1 *9463:Z *373:6 5.184 
2 *373:6 *373:11 0.865857 
3 *373:11 *9456:I 5.15414 
*END

*D_NET *374 0.0125569
*CONN
*I *9457:I I *D gf180mcu_fd_sc_mcu7t5v0__clkbuf_16
*I *9458:I I *D gf180mcu_fd_sc_mcu7t5v0__clkbuf_16
*I *9455:Z O *D gf180mcu_fd_sc_mcu7t5v0__clkbuf_16
*CAP
1 *9457:I 7.35994e-05
2 *9458:I 0
3 *9455:Z 0.000103794
4 *374:36 0.00186439
5 *374:20 0.000112892
6 *374:15 0.00190368
7 *374:11 0.00228261
8 *374:6 0.00238641
9 *9457:I *449:84 0.000110382
10 *374:6 *438:82 4.07634e-05
11 *374:11 *438:82 0.00105673
12 *374:36 *449:84 0.00262169
*RES
1 *9455:Z *374:6 5.17586 
2 *374:6 *374:11 16.3481 
3 *374:11 *374:15 4.5 
4 *374:15 *374:20 0.532 
5 *374:20 *9458:I 9 
6 *374:15 *374:36 20.156 
7 *374:36 *9457:I 5.184 
*END

*D_NET *375 0.0493276
*CONN
*I *9462:I I *D gf180mcu_fd_sc_mcu7t5v0__clkbuf_16
*I *9460:I I *D gf180mcu_fd_sc_mcu7t5v0__clkbuf_16
*I *9461:I I *D gf180mcu_fd_sc_mcu7t5v0__clkbuf_16
*I *9459:I I *D gf180mcu_fd_sc_mcu7t5v0__clkbuf_16
*I *9456:Z O *D gf180mcu_fd_sc_mcu7t5v0__clkbuf_16
*CAP
1 *9462:I 0
2 *9460:I 0
3 *9461:I 0
4 *9459:I 0
5 *9456:Z 0.000123764
6 *375:94 0.00293793
7 *375:74 0.00188076
8 *375:72 0.00854579
9 *375:36 0.0038112
10 *375:34 8.40943e-05
11 *375:30 0.00149604
12 *375:21 0.00161663
13 *375:19 0.000224539
14 *375:15 0.00171069
15 *375:6 0.0017305
16 *375:6 *438:76 0
17 *375:15 *438:76 0
18 *375:19 *438:76 0
19 *375:21 *438:76 0
20 *375:30 *438:76 0
21 *375:36 *449:84 0.00010269
22 *375:72 *9135:A1 1.29518e-05
23 *375:72 *9139:A1 0.00027843
24 *375:72 *9267:A3 1.10309e-05
25 *375:72 *9375:I1 4.9346e-05
26 *375:72 *9377:I0 1.54542e-05
27 *375:72 *9449:RN 0.000200232
28 *375:72 *9451:RN 0.000674905
29 *375:72 *449:84 0.00265359
30 *375:72 *506:20 0.000166527
31 *375:72 *506:33 0.000145646
32 *375:72 *595:29 0.00011703
33 *375:72 *614:10 4.38725e-05
34 *375:72 *614:23 0.000229218
35 *375:74 *9331:A1 1.48677e-05
36 *375:74 *9343:A2 0.000720096
37 *375:74 *9556:I 0.00121419
38 *375:74 *9632:D[5] 7.24795e-05
39 *375:74 *423:8 0.000451128
40 *375:74 *424:19 0
41 *375:74 *424:21 0
42 *375:74 *424:29 0
43 *375:74 *438:12 0.000206597
44 *375:74 *438:29 0.00270285
45 *375:74 *512:32 0.000568826
46 *375:94 *9214:A1 5.09739e-06
47 *375:94 *9236:A2 0.000126541
48 *375:94 *9252:A2 0.000130004
49 *375:94 *9254:A1 0.00110575
50 *375:94 *9254:A2 7.82266e-05
51 *375:94 *9282:A1 0.000618077
52 *375:94 *9282:A2 9.1713e-05
53 *375:94 *9283:A1 8.40936e-05
54 *375:94 *9357:I1 1.31662e-05
55 *375:94 *9382:I0 9.50423e-05
56 *375:94 *9382:S 0.00033529
57 *375:94 *9384:I0 8.80161e-05
58 *375:94 *9387:A1 1.51452e-05
59 *375:94 *9389:I0 4.47078e-05
60 *375:94 *9392:I0 1.3758e-05
61 *375:94 *9579:I 1.71854e-05
62 *375:94 *9598:I 0.000506242
63 *375:94 *9599:I 3.36514e-05
64 *375:94 *594:129 1.37616e-05
65 *375:94 *594:161 0.000181247
66 *375:94 *610:14 4.83197e-05
67 tl_o[13] *375:94 0
68 tl_o[24] *375:94 8.00093e-06
69 tl_o[40] *375:94 0.000122483
70 tl_o[54] *375:72 8.94484e-05
71 tl_o[56] *375:94 0
72 tl_o[65] *375:94 0.000444214
73 *9138:A4 *375:94 0.000229894
74 *9248:A3 *375:94 0.000111558
75 *9250:A3 *375:94 3.84261e-05
76 *9250:B *375:74 0.000688897
77 *9250:B *375:94 0.000119798
78 *9254:A3 *375:72 1.06893e-05
79 *9262:B *375:72 8.60659e-05
80 *9264:A1 *375:72 4.2318e-06
81 *9265:A2 *375:72 8.29367e-06
82 *9265:A3 *375:72 0.000164236
83 *9267:A2 *375:72 6.93287e-05
84 *9312:A1 *375:72 0.000370644
85 *9312:A3 *375:72 3.51062e-05
86 *9344:A2 *375:74 0.000427096
87 *9375:S *375:72 9.026e-05
88 *9377:S *375:72 0.000124653
89 *9388:A1 *375:94 0.00058062
90 *9395:A2 *375:74 0.00106911
91 *9397:D *375:72 0.000257917
92 *9399:D *375:72 0.000366552
93 *9436:D *375:94 0.000982612
94 *9438:D *375:94 0.00130642
95 *9651:I *375:74 0.000212385
96 *9657:I *375:74 0.000732317
97 *9665:I *375:74 0.000152638
98 *9666:I *375:74 0.00012719
99 *9666:I *375:94 0.000200661
100 *248:29 *375:74 0.00079477
101 *248:29 *375:94 0.000133365
102 *256:12 *375:72 3.65376e-05
103 *327:13 *375:72 0.000162119
104 *329:12 *375:94 5.01388e-05
105 *329:26 *375:94 8.36373e-05
106 *371:22 *375:74 0.000365176
107 *371:22 *375:94 1.12113e-05
*RES
1 *9456:Z *375:6 5.184 
2 *375:6 *375:15 9.72529 
3 *375:15 *375:19 0.610714 
4 *375:19 *375:21 0.684 
5 *375:21 *375:30 12.86 
6 *375:30 *375:34 4.5 
7 *375:34 *375:36 0.684 
8 *375:36 *375:72 40.296 
9 *375:72 *375:74 30.324 
10 *375:74 *9459:I 9 
11 *375:72 *375:94 41.452 
12 *375:94 *9461:I 9 
13 *375:34 *9460:I 4.5 
14 *375:19 *9462:I 4.5 
*END

*D_NET *376 0.0503893
*CONN
*I *9634:CLK I *D gf180mcu_fd_ip_sram__sram256x8m8wm1
*I *9632:CLK I *D gf180mcu_fd_ip_sram__sram256x8m8wm1
*I *9457:Z O *D gf180mcu_fd_sc_mcu7t5v0__clkbuf_16
*CAP
1 *9634:CLK 0.00323522
2 *9632:CLK 0.00492844
3 *9457:Z 1.70839e-05
4 *376:20 0.011438
5 *376:16 0.0202491
6 *376:12 0.0105214
*RES
1 *9457:Z *376:12 18.0841 
2 *376:12 *376:16 39.7409 
3 *376:16 *376:20 48.8761 
4 *376:20 *9632:CLK 45.784 
5 *376:16 *9634:CLK 31.6019 
*END

*D_NET *377 0.0464784
*CONN
*I *9635:CLK I *D gf180mcu_fd_ip_sram__sram256x8m8wm1
*I *9633:CLK I *D gf180mcu_fd_ip_sram__sram256x8m8wm1
*I *9458:Z O *D gf180mcu_fd_sc_mcu7t5v0__clkbuf_16
*CAP
1 *9635:CLK 0.00506014
2 *9633:CLK 4.92051e-05
3 *9458:Z 0.00834645
4 *377:22 0.00730973
5 *377:20 0.0097834
6 *377:16 0.0159295
7 *377:16 *439:37 0
*RES
1 *9458:Z *377:16 40.7587 
2 *377:16 *377:20 18.5033 
3 *377:20 *377:22 54.112 
4 *377:22 *9633:CLK 9.342 
5 *377:16 *9635:CLK 46.0147 
*END

*D_NET *378 0.0610729
*CONN
*I *9398:CLK I *D gf180mcu_fd_sc_mcu7t5v0__dffq_1
*I *9447:CLK I *D gf180mcu_fd_sc_mcu7t5v0__dffq_1
*I *9407:CLK I *D gf180mcu_fd_sc_mcu7t5v0__dffq_1
*I *9440:CLK I *D gf180mcu_fd_sc_mcu7t5v0__dffq_1
*I *9435:CLK I *D gf180mcu_fd_sc_mcu7t5v0__dffq_1
*I *9434:CLK I *D gf180mcu_fd_sc_mcu7t5v0__dffq_1
*I *9437:CLK I *D gf180mcu_fd_sc_mcu7t5v0__dffq_1
*I *9405:CLK I *D gf180mcu_fd_sc_mcu7t5v0__dffq_1
*I *9406:CLK I *D gf180mcu_fd_sc_mcu7t5v0__dffq_1
*I *9404:CLK I *D gf180mcu_fd_sc_mcu7t5v0__dffq_1
*I *9464:I I *D gf180mcu_fd_sc_mcu7t5v0__inv_4
*I *9403:CLK I *D gf180mcu_fd_sc_mcu7t5v0__dffq_1
*I *9401:CLK I *D gf180mcu_fd_sc_mcu7t5v0__dffq_1
*I *9402:CLK I *D gf180mcu_fd_sc_mcu7t5v0__dffq_1
*I *9400:CLK I *D gf180mcu_fd_sc_mcu7t5v0__dffq_1
*I *9459:Z O *D gf180mcu_fd_sc_mcu7t5v0__clkbuf_16
*CAP
1 *9398:CLK 0
2 *9447:CLK 0
3 *9407:CLK 0
4 *9440:CLK 7.42244e-05
5 *9435:CLK 0
6 *9434:CLK 0
7 *9437:CLK 0.00073077
8 *9405:CLK 3.61596e-05
9 *9406:CLK 0.000159072
10 *9404:CLK 0
11 *9464:I 0.000286019
12 *9403:CLK 0
13 *9401:CLK 0.000198906
14 *9402:CLK 0.000152399
15 *9400:CLK 0.000296771
16 *9459:Z 0.00142875
17 *378:182 0.00156927
18 *378:159 0.00208067
19 *378:146 0.000625789
20 *378:135 0.000231732
21 *378:110 0.000878528
22 *378:108 0.000520854
23 *378:102 0.000513093
24 *378:91 0.000174852
25 *378:80 0.00031503
26 *378:71 0.000931635
27 *378:14 0.000652852
28 *378:12 0.000638662
29 *378:10 0.00669524
30 *378:8 0.00678441
31 *9400:CLK *9315:A2 0.000237595
32 *9402:CLK *9319:A2 0.00018401
33 *9405:CLK *9632:D[7] 0.00041486
34 *9406:CLK *9335:A1 2.74661e-05
35 *9406:CLK *9335:A2 2.6126e-05
36 *9406:CLK *9577:I 1.15349e-05
37 *9406:CLK *460:30 7.66819e-05
38 *9437:CLK *9593:I 0.000133818
39 *9440:CLK *9229:A2 0.000134206
40 *9440:CLK *460:14 0.000424397
41 *9464:I *9330:A1 9.51581e-06
42 *378:10 *424:29 0
43 *378:10 *424:31 0
44 *378:12 *424:31 0
45 *378:71 *9331:A1 6.82811e-05
46 *378:71 *424:19 8.64281e-06
47 *378:71 *424:21 5.89152e-05
48 *378:71 *424:29 0.000101081
49 *378:80 *9335:A1 3.19219e-05
50 *378:80 *9343:A1 0.000868512
51 *378:80 *424:19 1.45899e-05
52 *378:91 *9343:A1 0.000598418
53 *378:91 *449:16 8.64766e-06
54 *378:102 *9343:A1 0.000142809
55 *378:102 *449:32 0.000114664
56 *378:108 *9229:A2 0.00159283
57 *378:108 *9337:I1 0.000192438
58 *378:108 *9549:I 7.22665e-05
59 *378:108 *9562:I 0.000143734
60 *378:108 *449:16 0
61 *378:110 *9229:A2 0.000278469
62 *378:110 *9337:I1 0.000434497
63 *378:110 *9381:I1 0.00013063
64 *378:110 *9593:I 0.000120325
65 *378:135 *449:32 2.89888e-05
66 *378:146 *449:32 5.33384e-05
67 *378:159 *9129:I 0.00130422
68 *378:159 *9233:A1 0.000254352
69 *378:159 *9240:A1 0.00015551
70 *378:159 *9582:I 0.000129336
71 *378:159 *449:32 2.4706e-05
72 *378:159 *516:79 2.96621e-05
73 *378:159 *530:22 8.55327e-05
74 *378:182 *9233:A1 1.52937e-05
75 *378:182 *9291:A2 0.00415589
76 *378:182 *9342:A1 7.72425e-05
77 *378:182 *9582:I 0.00365143
78 *378:182 *9646:I 0
79 *378:182 *407:22 4.47565e-05
80 *378:182 *408:25 0.000386474
81 *378:182 *514:48 0.000728242
82 tl_o[51] *9437:CLK 0.000138879
83 *9317:I0 *9400:CLK 0.00140414
84 *9321:I0 *378:12 6.81137e-05
85 *9321:I0 *378:14 3.89111e-05
86 *9325:I0 *9400:CLK 3.26862e-05
87 *9325:I0 *9401:CLK 2.72272e-05
88 *9325:I0 *9402:CLK 0
89 *9325:I0 *378:14 4.51389e-05
90 *9329:I0 *378:12 0.000310758
91 *9330:A3 *9464:I 0.000299217
92 *9332:A1 *9464:I 0.00010751
93 *9332:A1 *378:8 0.00011955
94 *9336:A1 *378:71 0.000632728
95 *9336:A1 *378:80 0.000680481
96 *9337:I0 *378:102 4.71425e-05
97 *9337:I0 *378:108 0
98 *9344:A1 *9406:CLK 1.76797e-05
99 *9344:A2 *9406:CLK 9.88736e-06
100 *9345:I0 *378:146 0.000374089
101 *9345:I0 *378:159 0.00167984
102 *9434:D *9437:CLK 0.00239392
103 *9435:D *378:110 4.0645e-06
104 *9440:D *378:146 0.00010204
105 *9440:D *378:159 0.000126333
106 *9472:I *378:159 0.000920584
107 *9535:I *9437:CLK 0.000358152
108 *9538:I *9437:CLK 8.74341e-05
109 *9632:WEN[7] *378:182 0.000192419
110 *3:50 *378:182 0.00298734
111 *198:12 *9400:CLK 4.94618e-05
112 *198:12 *378:14 4.75767e-05
113 *199:10 *9400:CLK 0.000103459
114 *200:10 *9402:CLK 0
115 *200:10 *378:12 0.000977764
116 *200:10 *378:14 0.000460427
117 *201:10 *378:71 0.000145829
118 *202:12 *9406:CLK 8.0352e-06
119 *202:12 *378:80 0.00020676
120 *202:12 *378:91 0.000118153
121 *204:8 *378:91 0.000312799
122 *204:8 *378:102 0.000845897
123 *204:8 *378:135 0.000179145
124 *204:8 *378:146 0.000226661
125 *328:20 *9406:CLK 7.24161e-06
126 *372:18 *9405:CLK 0.00041486
*RES
1 *9459:Z *378:8 11.052 
2 *378:8 *378:10 46.588 
3 *378:10 *378:12 3.42 
4 *378:12 *378:14 2.356 
5 *378:14 *9400:CLK 13.788 
6 *378:14 *9402:CLK 10.14 
7 *378:12 *9401:CLK 10.14 
8 *378:10 *9403:CLK 9 
9 *9459:Z *9464:I 11.052 
10 *9459:Z *378:71 15.84 
11 *378:71 *9404:CLK 9 
12 *378:71 *378:80 2.812 
13 *378:80 *9406:CLK 10.14 
14 *378:80 *378:91 1.596 
15 *378:91 *9405:CLK 10.14 
16 *378:91 *378:102 2.204 
17 *378:102 *378:108 9.06 
18 *378:108 *378:110 2.204 
19 *378:110 *9437:CLK 21.86 
20 *378:110 *9434:CLK 4.5 
21 *378:108 *9435:CLK 4.5 
22 *378:102 *378:135 0.532 
23 *378:135 *9440:CLK 10.14 
24 *378:135 *378:146 1.596 
25 *378:146 *9407:CLK 9 
26 *378:146 *378:159 13.164 
27 *378:159 *9447:CLK 4.5 
28 *378:159 *378:182 46.196 
29 *378:182 *9398:CLK 4.5 
*END

*D_NET *379 0.0863957
*CONN
*I *9423:CLK I *D gf180mcu_fd_sc_mcu7t5v0__dffq_1
*I *9422:CLK I *D gf180mcu_fd_sc_mcu7t5v0__dffq_1
*I *9421:CLK I *D gf180mcu_fd_sc_mcu7t5v0__dffq_1
*I *9419:CLK I *D gf180mcu_fd_sc_mcu7t5v0__dffq_1
*I *9417:CLK I *D gf180mcu_fd_sc_mcu7t5v0__dffq_1
*I *9418:CLK I *D gf180mcu_fd_sc_mcu7t5v0__dffq_1
*I *9416:CLK I *D gf180mcu_fd_sc_mcu7t5v0__dffq_1
*I *9420:CLK I *D gf180mcu_fd_sc_mcu7t5v0__dffq_1
*I *9424:CLK I *D gf180mcu_fd_sc_mcu7t5v0__dffq_1
*I *9465:I I *D gf180mcu_fd_sc_mcu7t5v0__inv_8
*I *9460:Z O *D gf180mcu_fd_sc_mcu7t5v0__clkbuf_16
*CAP
1 *9423:CLK 0.000215515
2 *9422:CLK 0
3 *9421:CLK 0
4 *9419:CLK 0
5 *9417:CLK 0
6 *9418:CLK 0
7 *9416:CLK 0.000199073
8 *9420:CLK 5.09035e-05
9 *9424:CLK 0.000525186
10 *9465:I 0
11 *9460:Z 0.000131863
12 *379:79 0.00039836
13 *379:77 0.000265636
14 *379:73 0.000337038
15 *379:58 0.00128762
16 *379:52 0.00301104
17 *379:50 0.00274635
18 *379:46 0.00336622
19 *379:38 0.0103562
20 *379:36 0.00852288
21 *379:21 0.004366
22 *379:6 0.00335668
23 *9423:CLK *413:14 2.22758e-05
24 *379:38 *453:14 0
25 *379:46 *9637:I 0.000445453
26 *379:46 *426:29 0
27 *379:50 *9172:A1 0
28 *379:50 *9172:A2 0
29 *379:50 *425:14 0.00148367
30 *379:50 *426:29 0.00192376
31 *379:52 *9168:A1 0.000841577
32 *379:52 *413:28 0
33 *379:52 *425:14 0.0182749
34 *379:52 *442:10 0.00268117
35 *379:58 *413:28 0
36 *379:73 *425:32 0.000548375
37 *379:73 *425:42 7.23007e-05
38 *379:73 *442:10 0.00102357
39 *379:73 *442:23 3.28611e-05
40 *379:73 *555:8 0.00270195
41 *379:77 *555:8 0.000896407
42 *9154:I0 *379:77 0.000406051
43 *9161:A2 *379:73 0.000420419
44 *9162:I0 *379:73 0.00017483
45 *9162:I0 *379:77 0.000587446
46 *9165:A2 *379:58 8.20521e-05
47 *9166:I0 *9420:CLK 2.23598e-06
48 *9166:I0 *379:58 7.45328e-07
49 *9166:I0 *379:73 0.00397009
50 *9170:I0 *379:52 0.000381142
51 *9170:I0 *379:58 0.00426538
52 *9418:D *379:79 0
53 *191:10 *379:6 8.22324e-05
54 *191:10 *379:21 0.00175705
55 *213:8 *9416:CLK 0.000201948
56 *213:8 *379:79 5.29128e-05
57 *214:10 *379:77 0.000269857
58 *216:10 *379:73 0.000416639
59 *217:14 *379:58 3.86671e-06
60 *218:10 *379:52 0.00323599
*RES
1 *9460:Z *379:6 5.488 
2 *379:6 *9465:I 4.5 
3 *379:6 *379:21 32.636 
4 *379:21 *9424:CLK 16.616 
5 *379:21 *379:36 3.724 
6 *379:36 *379:38 46.816 
7 *379:38 *379:46 26.632 
8 *379:46 *379:50 13.544 
9 *379:50 *379:52 50.084 
10 *379:52 *379:58 15.9 
11 *379:58 *9420:CLK 4.728 
12 *379:58 *379:73 21.6 
13 *379:73 *379:77 8.984 
14 *379:77 *379:79 1.14 
15 *379:79 *9416:CLK 6.172 
16 *379:79 *9418:CLK 4.5 
17 *379:77 *9417:CLK 4.5 
18 *379:73 *9419:CLK 9 
19 *379:52 *9421:CLK 9 
20 *379:50 *9422:CLK 9 
21 *379:46 *9423:CLK 5.64 
*END

*D_NET *380 0.0794444
*CONN
*I *9397:CLK I *D gf180mcu_fd_sc_mcu7t5v0__dffq_1
*I *9449:CLK I *D gf180mcu_fd_sc_mcu7t5v0__dffrnq_1
*I *9396:CLK I *D gf180mcu_fd_sc_mcu7t5v0__dffq_1
*I *9451:CLK I *D gf180mcu_fd_sc_mcu7t5v0__dffrnq_1
*I *9412:CLK I *D gf180mcu_fd_sc_mcu7t5v0__dffq_1
*I *9415:CLK I *D gf180mcu_fd_sc_mcu7t5v0__dffq_1
*I *9413:CLK I *D gf180mcu_fd_sc_mcu7t5v0__dffq_1
*I *9414:CLK I *D gf180mcu_fd_sc_mcu7t5v0__dffq_1
*I *9443:CLK I *D gf180mcu_fd_sc_mcu7t5v0__dffq_1
*I *9438:CLK I *D gf180mcu_fd_sc_mcu7t5v0__dffq_1
*I *9436:CLK I *D gf180mcu_fd_sc_mcu7t5v0__dffq_1
*I *9442:CLK I *D gf180mcu_fd_sc_mcu7t5v0__dffq_1
*I *9441:CLK I *D gf180mcu_fd_sc_mcu7t5v0__dffq_1
*I *9446:CLK I *D gf180mcu_fd_sc_mcu7t5v0__dffq_1
*I *9450:CLK I *D gf180mcu_fd_sc_mcu7t5v0__dffrnq_1
*I *9448:CLK I *D gf180mcu_fd_sc_mcu7t5v0__dffrnq_1
*I *9432:CLK I *D gf180mcu_fd_sc_mcu7t5v0__dffq_1
*I *9439:CLK I *D gf180mcu_fd_sc_mcu7t5v0__dffq_1
*I *9433:CLK I *D gf180mcu_fd_sc_mcu7t5v0__dffq_1
*I *9408:CLK I *D gf180mcu_fd_sc_mcu7t5v0__dffq_1
*I *9461:Z O *D gf180mcu_fd_sc_mcu7t5v0__clkbuf_16
*CAP
1 *9397:CLK 0.000458011
2 *9449:CLK 0.000202767
3 *9396:CLK 0
4 *9451:CLK 0
5 *9412:CLK 0
6 *9415:CLK 0.00037192
7 *9413:CLK 0
8 *9414:CLK 0.000198987
9 *9443:CLK 0.000105732
10 *9438:CLK 0.000601986
11 *9436:CLK 0.000781949
12 *9442:CLK 0.00022496
13 *9441:CLK 0
14 *9446:CLK 0
15 *9450:CLK 0.00117657
16 *9448:CLK 0
17 *9432:CLK 0
18 *9439:CLK 0.000570078
19 *9433:CLK 0
20 *9408:CLK 1.60699e-05
21 *9461:Z 0.000341498
22 *380:229 0.000933234
23 *380:220 0.000429428
24 *380:207 0.00111927
25 *380:175 0.000558013
26 *380:164 0.000759326
27 *380:160 0.000881
28 *380:152 0.00565522
29 *380:136 0.000707718
30 *380:88 0.000283219
31 *380:63 0.000990967
32 *380:57 0.000976724
33 *380:47 0.000868999
34 *380:43 0.000537498
35 *380:35 0.000481296
36 *380:31 0.000643736
37 *380:29 0.00110981
38 *380:25 0.000722189
39 *380:12 0.000719714
40 *380:8 0.00556852
41 *9397:CLK *449:84 2.87321e-05
42 *9397:CLK *648:14 0
43 *9408:CLK *9187:I1 8.55327e-05
44 *9408:CLK *9614:I 2.96621e-05
45 *9436:CLK *9254:A1 1.53361e-05
46 *9436:CLK *9579:I 0.000143447
47 *9436:CLK *9597:I 0.000167207
48 *9436:CLK *474:19 0.000622382
49 *9438:CLK *9283:A1 5.79226e-05
50 *9438:CLK *9578:I 0.00198964
51 *9438:CLK *472:6 0.000149401
52 *9438:CLK *472:36 0.000151925
53 *9439:CLK *9216:A1 0.000707424
54 *9439:CLK *9379:I1 0.000993288
55 *9442:CLK *9251:A2 0
56 *9442:CLK *9597:I 1.97747e-05
57 *9443:CLK *9283:A1 1.23559e-05
58 *9443:CLK *9578:I 0.000326055
59 *9443:CLK *9639:I 1.45723e-05
60 *9450:CLK *9134:A1 0.000348384
61 *9450:CLK *9236:A2 1.76898e-05
62 *9450:CLK *594:83 0.000140814
63 *380:8 *9284:A1 9.57948e-05
64 *380:8 *9353:S 2.6126e-05
65 *380:8 *448:12 0
66 *380:8 *448:20 3.35959e-05
67 *380:8 *448:38 0.000432249
68 *380:8 *448:49 8.55242e-05
69 *380:12 *9597:I 0.000269865
70 *380:25 *9187:I1 0.000327687
71 *380:25 *9353:S 8.78761e-05
72 *380:25 *9390:I1 0.000746947
73 *380:25 *9390:S 1.7269e-05
74 *380:25 *9614:I 9.28591e-05
75 *380:25 *9633:D[2] 1.76665e-05
76 *380:25 *418:6 1.20079e-05
77 *380:25 *448:49 0
78 *380:29 *9283:A1 0.00165006
79 *380:29 *9390:I1 0.00156956
80 *380:31 *9596:I 0.000565906
81 *380:31 *9597:I 0.00104262
82 *380:35 *439:16 0.000576593
83 *380:35 *613:22 0.00042524
84 *380:43 *9254:A1 7.83779e-05
85 *380:43 *9254:A2 0.000177992
86 *380:43 *594:117 6.1888e-05
87 *380:47 *9135:A1 0.000155452
88 *380:47 *9234:B 6.57222e-06
89 *380:47 *594:117 8.84331e-05
90 *380:57 *9130:I 4.04938e-05
91 *380:57 *9134:A2 0.000135047
92 *380:57 *9234:B 2.41132e-05
93 *380:57 *9236:A2 0.000635364
94 *380:57 *530:22 0.000634346
95 *380:88 *9134:A1 0.000413258
96 *380:152 *9285:A1 0.000468621
97 *380:152 *418:35 0
98 *380:152 *450:8 9.48756e-05
99 *380:152 *450:17 0.0013296
100 *380:207 *9128:I 0.000179609
101 *380:207 *438:56 5.87561e-06
102 *380:207 *594:83 2.6126e-05
103 *380:207 *648:34 0.000491162
104 *380:220 *9128:I 0.000140885
105 *380:220 *648:34 0.00016601
106 *380:229 *9128:I 9.58759e-05
107 *380:229 *648:34 0.000855992
108 tl_o[14] *9450:CLK 5.95354e-05
109 tl_o[14] *380:207 9.37296e-06
110 tl_o[20] *380:57 7.5179e-05
111 tl_o[20] *380:63 0.000118457
112 tl_o[41] *380:8 0.00107579
113 tl_o[4] *9450:CLK 9.92577e-05
114 tl_o[4] *380:57 0.000449997
115 tl_o[4] *380:63 0.000713634
116 tl_o[4] *380:88 0.000172721
117 tl_o[54] *9439:CLK 0.000114891
118 tl_o[54] *380:63 5.18299e-05
119 tl_o[55] *9436:CLK 0.000139333
120 tl_o[57] *9439:CLK 0.000199473
121 tl_o[6] *9436:CLK 7.83321e-05
122 *9135:A2 *380:47 0.00124129
123 *9136:A1 *380:207 4.2318e-06
124 *9136:A2 *380:207 0.000127234
125 *9145:I0 *9415:CLK 0.00062042
126 *9145:I0 *380:175 0.000314986
127 *9187:I0 *380:25 0.000174107
128 *9234:A2 *9450:CLK 2.01537e-05
129 *9239:B2 *380:57 0.000214418
130 *9241:B1 *380:57 5.60494e-05
131 *9248:A3 *9438:CLK 2.11326e-05
132 *9255:A1 *9438:CLK 0
133 *9255:A2 *380:43 0
134 *9255:B *9436:CLK 0.000344285
135 *9255:B *380:31 0.00015551
136 *9263:A3 *380:43 0.000369462
137 *9265:A2 *380:47 0.00134461
138 *9265:A2 *380:57 0.000243508
139 *9268:I1 *380:229 0.000150775
140 *9270:A2 *9450:CLK 0.00013063
141 *9365:I0 *380:164 0.000396912
142 *9369:I0 *380:160 0.00021193
143 *9373:I0 *380:160 0
144 *9373:I0 *380:164 0
145 *9373:I0 *380:175 0
146 *9391:S *9442:CLK 2.6126e-05
147 *9391:S *380:31 0.00151459
148 *9393:I0 *380:43 0.000812388
149 *9397:D *9397:CLK 0
150 *9441:D *380:35 0.000381142
151 *9441:D *380:43 0.000279004
152 *9443:D *380:25 0.00060635
153 *9443:D *380:29 0.000396896
154 *9475:I *380:29 0.000247598
155 *9486:I *9436:CLK 3.67266e-05
156 *9487:I *9438:CLK 0.000204162
157 *9498:I *9436:CLK 3.1909e-05
158 *9501:I *380:8 0.000149579
159 *9520:I *9436:CLK 0.000257796
160 *9528:I *9436:CLK 5.87561e-06
161 *9533:I *380:63 0.000775943
162 *9543:I *9439:CLK 0.000107173
163 *9543:I *380:63 6.48268e-05
164 *9649:I *380:152 0.00128054
165 *209:10 *380:164 0.00162527
166 *209:10 *380:175 8.84331e-05
167 *211:10 *9415:CLK 0
168 *211:10 *380:175 0
169 *248:8 *380:57 0.00137162
170 *248:23 *380:57 4.26315e-06
171 *248:29 *380:57 0.000138015
172 *249:12 *380:207 0
173 *253:12 *380:47 3.19219e-05
174 *258:20 *380:35 0.00426057
175 *258:20 *380:43 0.000324204
176 *325:10 *380:43 0.000120723
177 *327:17 *9397:CLK 5.34556e-05
178 *327:17 *9449:CLK 9.30147e-05
179 *329:26 *380:12 0.000507951
180 *329:26 *380:25 5.61034e-05
181 *329:26 *380:152 0.000206333
182 *329:37 *380:152 0.000610089
183 *367:33 *380:47 0.00036575
184 *369:18 *380:57 0.000830508
185 *370:14 *380:57 0.00031512
186 *370:53 *380:47 2.15998e-06
187 *371:22 *380:35 0.00214167
188 *371:22 *380:43 0.00021974
*RES
1 *9461:Z *380:8 13.332 
2 *380:8 *380:12 5.792 
3 *380:12 *9408:CLK 4.728 
4 *380:12 *380:25 10.732 
5 *380:25 *380:29 9.744 
6 *380:29 *380:31 5.244 
7 *380:31 *380:35 15.064 
8 *380:35 *380:43 8.984 
9 *380:43 *380:47 10.048 
10 *380:47 *380:57 14.076 
11 *380:57 *380:63 9.516 
12 *380:63 *9433:CLK 9 
13 *380:63 *9439:CLK 14.7 
14 *380:57 *9432:CLK 4.5 
15 *380:47 *380:88 5.64 
16 *380:88 *9448:CLK 4.5 
17 *380:88 *9450:CLK 7.008 
18 *380:43 *9446:CLK 4.5 
19 *380:35 *9441:CLK 9 
20 *380:31 *9442:CLK 5.64 
21 *380:29 *9436:CLK 11.568 
22 *380:25 *380:136 4.5 
23 *380:136 *9438:CLK 11.112 
24 *380:136 *9443:CLK 5.488 
25 *380:8 *380:152 46.132 
26 *380:152 *380:160 7.92 
27 *380:160 *380:164 9.44 
28 *380:164 *9414:CLK 10.14 
29 *380:164 *380:175 2.356 
30 *380:175 *9413:CLK 9 
31 *380:175 *9415:CLK 13.332 
32 *380:160 *9412:CLK 4.5 
33 *9450:CLK *380:207 11.568 
34 *380:207 *9451:CLK 4.5 
35 *380:207 *380:220 1.824 
36 *380:220 *9396:CLK 4.5 
37 *380:220 *380:229 7.768 
38 *380:229 *9449:CLK 10.292 
39 *380:229 *9397:CLK 11.66 
*END

*D_NET *381 0.0913804
*CONN
*I *9429:CLK I *D gf180mcu_fd_sc_mcu7t5v0__dffq_1
*I *9431:CLK I *D gf180mcu_fd_sc_mcu7t5v0__dffq_1
*I *9430:CLK I *D gf180mcu_fd_sc_mcu7t5v0__dffq_1
*I *9428:CLK I *D gf180mcu_fd_sc_mcu7t5v0__dffq_1
*I *9427:CLK I *D gf180mcu_fd_sc_mcu7t5v0__dffq_1
*I *9426:CLK I *D gf180mcu_fd_sc_mcu7t5v0__dffq_1
*I *9411:CLK I *D gf180mcu_fd_sc_mcu7t5v0__dffq_1
*I *9425:CLK I *D gf180mcu_fd_sc_mcu7t5v0__dffq_1
*I *9409:CLK I *D gf180mcu_fd_sc_mcu7t5v0__dffq_1
*I *9444:CLK I *D gf180mcu_fd_sc_mcu7t5v0__dffq_1
*I *9445:CLK I *D gf180mcu_fd_sc_mcu7t5v0__dffq_1
*I *9410:CLK I *D gf180mcu_fd_sc_mcu7t5v0__dffq_1
*I *9466:I I *D gf180mcu_fd_sc_mcu7t5v0__inv_4
*I *9399:CLK I *D gf180mcu_fd_sc_mcu7t5v0__dffq_1
*I *9462:Z O *D gf180mcu_fd_sc_mcu7t5v0__clkbuf_16
*CAP
1 *9429:CLK 0.000238227
2 *9431:CLK 0.00059
3 *9430:CLK 0.000159456
4 *9428:CLK 0
5 *9427:CLK 0
6 *9426:CLK 0
7 *9411:CLK 0.000552271
8 *9425:CLK 0.000115989
9 *9409:CLK 0
10 *9444:CLK 0
11 *9445:CLK 0.000250103
12 *9410:CLK 0.000330307
13 *9466:I 8.92547e-05
14 *9399:CLK 0.0010347
15 *9462:Z 0.00392461
16 *381:156 0.000875001
17 *381:145 0.000299287
18 *381:136 0.00211851
19 *381:127 0.00250067
20 *381:118 0.000498211
21 *381:114 0.00887507
22 *381:112 0.0143168
23 *381:85 0.000115989
24 *381:83 0.000929282
25 *381:63 0.0006175
26 *381:61 0.000744408
27 *381:48 0.0113991
28 *381:44 0.0193342
29 *9399:CLK *438:76 0.00147279
30 *9399:CLK *449:84 0.00702556
31 *9411:CLK *9284:A1 0
32 *9411:CLK *9347:A2 0
33 *9411:CLK *9351:A2 1.23313e-05
34 *9411:CLK *9355:A1 5.08082e-05
35 *9411:CLK *9355:A2 9.50271e-05
36 *9411:CLK *428:27 0.000310356
37 *9425:CLK *9633:D[1] 0.000415649
38 *9425:CLK *448:49 0.000140167
39 *9429:CLK *9205:A1 9.42485e-06
40 *9429:CLK *9209:A2 6.07421e-05
41 *9429:CLK *429:68 0.000145096
42 *9430:CLK *9201:A2 2.22758e-05
43 *9430:CLK *429:53 9.75898e-05
44 *9431:CLK *9209:A1 0
45 *9431:CLK *9209:A2 3.73535e-05
46 *9431:CLK *429:68 1.97747e-05
47 *9445:CLK *9578:I 0.000121643
48 *9445:CLK *9596:I 8.30464e-05
49 *9445:CLK *9639:I 0
50 *9466:I *414:10 0.000386421
51 *381:44 *431:26 1.68417e-05
52 *381:44 *439:35 7.6709e-05
53 *381:48 *9633:D[1] 0.000206253
54 *381:63 *9596:I 8.9996e-05
55 *381:63 *9639:I 0
56 *381:63 *448:49 0.000145579
57 *381:63 *448:61 0.000165884
58 *381:83 *448:49 0.000681531
59 *381:118 *9189:A2 8.75318e-05
60 *381:127 *9189:A2 0.00245913
61 *381:136 *415:12 0.00141963
62 *381:136 *415:23 0.000912756
63 *381:136 *429:14 0.000110668
64 *381:136 *429:40 0
65 *381:136 *429:53 0
66 *381:145 *429:53 0
67 *381:156 *429:53 0
68 *381:156 *429:68 0.000453575
69 *9187:I0 *9425:CLK 0
70 *9191:I0 *381:127 0.000834113
71 *9194:A1 *381:118 0
72 *9194:A1 *381:127 0
73 *9194:A2 *381:127 0.000583398
74 *9195:I0 *381:136 3.18983e-05
75 *9199:I0 *9429:CLK 0.000344569
76 *9199:I0 *381:136 0.000406051
77 *9199:I0 *381:145 0.000508189
78 *9199:I0 *381:156 0.000628376
79 *9202:A2 *9431:CLK 2.9378e-06
80 *9206:A2 *9429:CLK 2.6126e-05
81 *9210:A2 *9429:CLK 1.49066e-06
82 *9352:A1 *9411:CLK 0.000165226
83 *9352:A1 *381:83 1.20889e-05
84 *9352:A2 *9411:CLK 0
85 *9353:I0 *9411:CLK 0
86 *9356:A2 *9411:CLK 5.40519e-05
87 *9429:D *9431:CLK 7.83779e-05
88 *9445:D *9445:CLK 0
89 *208:10 *9411:CLK 1.02823e-05
90 *224:12 *381:127 0.000293128
91 *226:12 *9429:CLK 0.000125085
92 *226:12 *9431:CLK 3.38323e-05
*RES
1 *9462:Z *9399:CLK 27.24 
2 *9462:Z *9466:I 9.988 
3 *9462:Z *381:44 27.3319 
4 *381:44 *381:48 47.0953 
5 *381:48 *9410:CLK 14.64 
6 *381:48 *381:61 4.5 
7 *381:61 *381:63 2.66 
8 *381:63 *9445:CLK 10.824 
9 *381:63 *9444:CLK 9 
10 *381:61 *381:83 3.724 
11 *381:83 *381:85 4.5 
12 *381:85 *9409:CLK 4.5 
13 *381:85 *9425:CLK 5.64 
14 *381:83 *9411:CLK 13.256 
15 *381:44 *381:112 22.9409 
16 *381:112 *381:114 66.0847 
17 *381:114 *381:118 4.728 
18 *381:118 *9426:CLK 9 
19 *381:118 *381:127 10.108 
20 *381:127 *9427:CLK 9 
21 *381:127 *381:136 19.988 
22 *381:136 *9428:CLK 9 
23 *381:136 *381:145 1.292 
24 *381:145 *9430:CLK 10.14 
25 *381:145 *381:156 1.596 
26 *381:156 *9431:CLK 12.496 
27 *381:156 *9429:CLK 11.128 
*END

*D_NET *382 0.0134501
*CONN
*I *9253:A1 I *D gf180mcu_fd_sc_mcu7t5v0__nor2_1
*I *9476:Z O *D gf180mcu_fd_sc_mcu7t5v0__dlyd_1
*CAP
1 *9253:A1 0.00150747
2 *9476:Z 0.00150747
3 *9253:A1 *9137:A1 0.000154451
4 *9253:A1 *9137:A2 0.000215268
5 *9253:A1 *9221:A2 0.000876178
6 *9253:A1 *9252:A1 8.01978e-05
7 *9253:A1 *9252:A2 0.000479185
8 *9253:A1 *9254:A1 0.00340768
9 *9253:A1 *9254:A2 0.000488364
10 *9253:A1 *9269:A2 0.000237583
11 *9253:A1 *9390:I1 3.86587e-05
12 *9253:A1 *9391:I1 0.000107846
13 *9253:A1 *431:22 0.00050657
14 *9253:A1 *460:150 9.78301e-05
15 *9253:A1 *474:44 0.000138428
16 *9253:A1 *602:12 3.73627e-05
17 tl_o[6] *9253:A1 0.000185185
18 *9138:A4 *9253:A1 0.000127484
19 *9255:B *9253:A1 0.000519105
20 *9391:S *9253:A1 3.37776e-05
21 *9446:D *9253:A1 1.97747e-05
22 *325:10 *9253:A1 0.00097506
23 *371:22 *9253:A1 0.00170918
*RES
1 *9476:Z *9253:A1 41.332 
*END

*D_NET *383 0.00373097
*CONN
*I *9384:I0 I *D gf180mcu_fd_sc_mcu7t5v0__mux2_2
*I *9477:Z O *D gf180mcu_fd_sc_mcu7t5v0__dlyd_1
*CAP
1 *9384:I0 0.000473053
2 *9477:Z 0.000473053
3 *9384:I0 *9214:A1 0.000346658
4 *9384:I0 *9385:I0 7.01769e-05
5 *9384:I0 *9387:A1 5.4634e-05
6 *9384:I0 *9573:I 9.58084e-05
7 *9384:I0 *421:41 0.000159942
8 *9384:I0 *514:14 0.000192034
9 *9384:I0 *594:129 0.000449539
10 *9384:I0 *594:135 0.000348194
11 *9248:A3 *9384:I0 4.07251e-05
12 *9540:I *9384:I0 0.000323392
13 *308:12 *9384:I0 0.000615744
14 *375:94 *9384:I0 8.80161e-05
*RES
1 *9477:Z *9384:I0 24.232 
*END

*D_NET *384 0.0442508
*CONN
*I *9566:I I *D gf180mcu_fd_sc_mcu7t5v0__dlyd_1
*I *9191:Z O *D gf180mcu_fd_sc_mcu7t5v0__mux2_2
*CAP
1 *9566:I 0.000385594
2 *9191:Z 0
3 *384:8 0.00205269
4 *384:6 0.0016671
5 *9566:I *9567:I 7.83779e-05
6 *9566:I *388:14 0.000196402
7 *384:8 *9191:I1 0.00405341
8 *384:8 *385:8 0.0212856
9 *384:8 *387:14 0.0130747
10 *384:8 *415:12 1.18942e-05
11 *384:8 *415:23 2.00012e-05
12 *384:8 *446:40 8.86165e-05
13 *9195:I0 *384:8 0.00133637
*RES
1 *9191:Z *384:6 9 
2 *384:6 *384:8 62.092 
3 *384:8 *9566:I 11.66 
*END

*D_NET *385 0.0343338
*CONN
*I *9567:I I *D gf180mcu_fd_sc_mcu7t5v0__dlyd_1
*I *9195:Z O *D gf180mcu_fd_sc_mcu7t5v0__mux2_2
*CAP
1 *9567:I 0.000325897
2 *9195:Z 0
3 *385:8 0.00143801
4 *385:6 0.00111211
5 *385:8 *386:12 8.10997e-06
6 *385:8 *388:14 0.00289324
7 *385:8 *446:34 0.000554564
8 *385:8 *446:36 0.000235981
9 *385:8 *446:40 0.00640195
10 *9566:I *9567:I 7.83779e-05
11 *384:8 *385:8 0.0212856
*RES
1 *9195:Z *385:6 9 
2 *385:6 *385:8 51.3 
3 *385:8 *9567:I 10.9 
*END

*D_NET *386 0.0181159
*CONN
*I *9568:I I *D gf180mcu_fd_sc_mcu7t5v0__dlyd_1
*I *9199:Z O *D gf180mcu_fd_sc_mcu7t5v0__mux2_2
*CAP
1 *9568:I 0
2 *9199:Z 0.00253991
3 *386:12 0.00253991
4 *386:12 *388:14 0.0125827
5 *386:12 *415:47 0.000352987
6 *386:12 *446:34 3.83642e-05
7 *9207:I0 *386:12 5.39056e-05
8 *385:8 *386:12 8.10997e-06
*RES
1 *9199:Z *386:12 47.548 
2 *386:12 *9568:I 4.5 
*END

*D_NET *387 0.0193485
*CONN
*I *9569:I I *D gf180mcu_fd_sc_mcu7t5v0__dlyd_1
*I *9203:Z O *D gf180mcu_fd_sc_mcu7t5v0__mux2_2
*CAP
1 *9569:I 0
2 *9203:Z 0.00310028
3 *387:14 0.00310028
4 *387:14 *9211:S 7.3227e-05
5 *384:8 *387:14 0.0130747
*RES
1 *9203:Z *387:14 47.472 
2 *387:14 *9569:I 4.5 
*END

*D_NET *388 0.0182664
*CONN
*I *9570:I I *D gf180mcu_fd_sc_mcu7t5v0__dlyd_1
*I *9207:Z O *D gf180mcu_fd_sc_mcu7t5v0__mux2_2
*CAP
1 *9570:I 0
2 *9207:Z 0.00128908
3 *388:14 0.00128908
4 *388:14 *9207:I1 1.58969e-05
5 *9566:I *388:14 0.000196402
6 *385:8 *388:14 0.00289324
7 *386:12 *388:14 0.0125827
*RES
1 *9207:Z *388:14 47.776 
2 *388:14 *9570:I 4.5 
*END

*D_NET *389 0.00951161
*CONN
*I *9571:I I *D gf180mcu_fd_sc_mcu7t5v0__dlyd_1
*I *9211:Z O *D gf180mcu_fd_sc_mcu7t5v0__mux2_2
*CAP
1 *9571:I 0
2 *9211:Z 0.0047558
3 *389:12 0.0047558
*RES
1 *9211:Z *389:12 47.548 
2 *389:12 *9571:I 4.5 
*END

*D_NET *390 0.00270011
*CONN
*I *9572:I I *D gf180mcu_fd_sc_mcu7t5v0__dlyd_1
*I *9215:Z O *D gf180mcu_fd_sc_mcu7t5v0__and2_1
*CAP
1 *9572:I 0.000134325
2 *9215:Z 0.000134325
3 *9572:I *9247:A1 0.00038547
4 *9572:I *9247:A2 3.19219e-05
5 *9572:I *613:22 0.000221419
6 tl_o[53] *9572:I 0.00108603
7 *9255:A2 *9572:I 6.64701e-06
8 *9263:A2 *9572:I 7.6393e-05
9 *308:12 *9572:I 0.000623573
*RES
1 *9215:Z *9572:I 21.496 
*END

*D_NET *391 0.00933783
*CONN
*I *9573:I I *D gf180mcu_fd_sc_mcu7t5v0__dlyd_1
*I *9216:Z O *D gf180mcu_fd_sc_mcu7t5v0__and2_1
*CAP
1 *9573:I 0.000744774
2 *9216:Z 0.000744774
3 *9573:I *9138:A3 0.000767638
4 *9573:I *9221:A1 4.78543e-05
5 *9573:I *9385:I1 0.000176368
6 *9573:I *9389:I1 0.000345805
7 *9573:I *9392:I1 6.81573e-05
8 *9573:I *9580:I 0.00123946
9 *9573:I *506:20 0.00131295
10 *9573:I *594:129 0.000430567
11 *9573:I *594:135 0.00171445
12 *9573:I *602:12 2.23783e-05
13 *9573:I *613:22 0.000561202
14 tl_o[58] *9573:I 0.0007555
15 *9384:I0 *9573:I 9.58084e-05
16 *9473:I *9573:I 8.38488e-05
17 *9520:I *9573:I 4.93216e-05
18 *308:12 *9573:I 0.000176979
*RES
1 *9216:Z *9573:I 31.756 
*END

*D_NET *392 0.00553681
*CONN
*I *9574:I I *D gf180mcu_fd_sc_mcu7t5v0__dlyd_1
*I *9217:Z O *D gf180mcu_fd_sc_mcu7t5v0__and2_1
*CAP
1 *9574:I 0.000961865
2 *9217:Z 0.000961865
3 *9574:I *9217:A2 1.44786e-05
4 *9574:I *9220:A1 0.000142086
5 *9574:I *9280:A1 0.000247904
6 *9574:I *9594:I 0.000300075
7 *9574:I *402:26 0.000300075
8 *9574:I *408:51 8.79524e-05
9 *9574:I *411:12 0
10 *9574:I *438:12 0
11 *9574:I *444:18 8.23319e-05
12 *9574:I *594:38 1.24155e-05
13 *9574:I *606:8 0.000778308
14 *9574:I *607:10 0.000711504
15 *9341:I0 *9574:I 0.000406301
16 *295:12 *9574:I 0.000529646
*RES
1 *9217:Z *9574:I 27.956 
*END

*D_NET *393 0.0141684
*CONN
*I *9575:I I *D gf180mcu_fd_sc_mcu7t5v0__dlyd_1
*I *9218:Z O *D gf180mcu_fd_sc_mcu7t5v0__and2_1
*CAP
1 *9575:I 0
2 *9218:Z 0.0039281
3 *393:14 0.0039281
4 *393:14 *9218:A1 0.000148476
5 *393:14 *9218:A2 6.68164e-05
6 *393:14 *9258:A1 4.40942e-05
7 *393:14 *9378:I1 0
8 *393:14 *9381:I1 0.00023547
9 *393:14 *9468:I 0.000365406
10 *393:14 *9594:I 0.000204921
11 *393:14 *9598:I 2.43271e-05
12 *393:14 *9640:I 0.00190128
13 *393:14 *408:14 0.000146206
14 *393:14 *408:51 0
15 *393:14 *411:12 0.000419123
16 *393:14 *412:31 0.000518403
17 *393:14 *420:14 0
18 *393:14 *444:18 0
19 *393:14 *444:31 6.40199e-05
20 *393:14 *449:16 0.00011955
21 *393:14 *513:24 0.000692027
22 tl_o[23] *393:14 5.0825e-05
23 tl_o[56] *393:14 5.94709e-06
24 tl_o[64] *393:14 0.000387712
25 *9434:D *393:14 0.000277075
26 *9480:I *393:14 5.96204e-05
27 *9526:I *393:14 9.45217e-05
28 *9539:I *393:14 0.000486402
*RES
1 *9218:Z *393:14 47.32 
2 *393:14 *9575:I 4.5 
*END

*D_NET *394 0.00731459
*CONN
*I *9385:I0 I *D gf180mcu_fd_sc_mcu7t5v0__mux2_2
*I *9478:Z O *D gf180mcu_fd_sc_mcu7t5v0__dlyd_1
*CAP
1 *9385:I0 0.000666398
2 *9478:Z 0.000666398
3 *9385:I0 *9283:A1 0.00103049
4 *9385:I0 *9382:I0 0.00125364
5 *9385:I0 *9385:S 0.000701167
6 *9385:I0 *9639:I 0.00127725
7 *9385:I0 *421:13 8.55242e-05
8 *9385:I0 *421:41 0.000508187
9 *9385:I0 *594:129 5.59457e-05
10 tl_o[25] *9385:I0 0.000505852
11 tl_o[58] *9385:I0 0.000171713
12 tl_o[65] *9385:I0 0.000124188
13 *9384:I0 *9385:I0 7.01769e-05
14 *308:12 *9385:I0 0.000197657
*RES
1 *9478:Z *9385:I0 28.868 
*END

*D_NET *395 0.00669227
*CONN
*I *9576:I I *D gf180mcu_fd_sc_mcu7t5v0__dlyd_1
*I *9219:Z O *D gf180mcu_fd_sc_mcu7t5v0__and2_1
*CAP
1 *9576:I 0.000761448
2 *9219:Z 0.000761448
3 *9576:I *9254:A2 7.3227e-05
4 *9576:I *9581:I 0.000754651
5 *9576:I *412:64 0.00163245
6 *9576:I *512:16 7.88136e-05
7 *9255:A1 *9576:I 0.00173319
8 *9488:I *9576:I 0.000406773
9 *9520:I *9576:I 9.50551e-05
10 *9528:I *9576:I 0.000395221
*RES
1 *9219:Z *9576:I 28.792 
*END

*D_NET *396 0.0157849
*CONN
*I *9577:I I *D gf180mcu_fd_sc_mcu7t5v0__dlyd_1
*I *9220:Z O *D gf180mcu_fd_sc_mcu7t5v0__and2_1
*CAP
1 *9577:I 0.00146412
2 *9220:Z 0.00146412
3 *9577:I *9225:A1 0.000333388
4 *9577:I *9234:B 0.00200319
5 *9577:I *9280:A1 2.21675e-05
6 *9577:I *9342:A2 0.0016702
7 *9577:I *9394:A1 0.000495083
8 *9577:I *9394:A2 0.000299226
9 *9577:I *9559:I 0.000317618
10 *9577:I *422:85 0.000651006
11 *9577:I *423:8 7.2964e-06
12 *9577:I *432:17 0.00272075
13 *9577:I *463:12 0.000313408
14 *9577:I *594:32 0.000299961
15 *9272:A3 *9577:I 7.33578e-06
16 *9344:A1 *9577:I 0.000158214
17 *9395:B *9577:I 2.03665e-05
18 *9405:D *9577:I 0.000111867
19 *9406:CLK *9577:I 1.15349e-05
20 *9470:I *9577:I 7.74188e-05
21 *9655:I *9577:I 0.000580802
22 *202:12 *9577:I 9.92506e-05
23 *328:20 *9577:I 0.000110382
24 *371:22 *9577:I 0.00222952
25 *372:18 *9577:I 0.000316633
*RES
1 *9220:Z *9577:I 43.916 
*END

*D_NET *397 0.0132539
*CONN
*I *9578:I I *D gf180mcu_fd_sc_mcu7t5v0__dlyd_1
*I *9221:Z O *D gf180mcu_fd_sc_mcu7t5v0__and2_1
*CAP
1 *9578:I 0.00161724
2 *9221:Z 0.00161724
3 *9578:I *9251:A1 5.38563e-06
4 *9578:I *9252:A1 0.0024144
5 *9578:I *9254:A1 6.94418e-05
6 *9578:I *9596:I 0
7 *9578:I *448:61 7.5424e-05
8 tl_o[25] *9578:I 0.000501732
9 *9348:A1 *9578:I 0
10 *9438:CLK *9578:I 0.00198964
11 *9442:D *9578:I 0.000508311
12 *9443:D *9578:I 2.6313e-05
13 *9443:CLK *9578:I 0.000326055
14 *9445:D *9578:I 0
15 *9445:CLK *9578:I 0.000121643
16 *9473:I *9578:I 0.00313681
17 *9476:I *9578:I 7.73261e-05
18 *9487:I *9578:I 0.000307966
19 *9509:I *9578:I 0.000218841
20 *9666:I *9578:I 0.000240142
21 *371:22 *9578:I 0
*RES
1 *9221:Z *9578:I 38.748 
*END

*D_NET *398 0.00582341
*CONN
*I *9579:I I *D gf180mcu_fd_sc_mcu7t5v0__dlyd_1
*I *9222:Z O *D gf180mcu_fd_sc_mcu7t5v0__and2_1
*CAP
1 *9579:I 0.000427262
2 *9222:Z 0.000427262
3 *9579:I *9214:A1 1.08231e-05
4 *9579:I *9222:A2 1.58994e-05
5 *9579:I *9254:A2 0.000933403
6 *9579:I *9598:I 0.00277375
7 *9436:D *9579:I 0.000763919
8 *9436:CLK *9579:I 0.000143447
9 *9498:I *9579:I 0.000310458
10 *375:94 *9579:I 1.71854e-05
*RES
1 *9222:Z *9579:I 26.74 
*END

*D_NET *399 0.0125779
*CONN
*I *9580:I I *D gf180mcu_fd_sc_mcu7t5v0__dlyd_1
*I *9213:Z O *D gf180mcu_fd_sc_mcu7t5v0__and2_1
*CAP
1 *9580:I 0.00219767
2 *9213:Z 0.00219767
3 *9580:I *9231:A1 6.56014e-05
4 *9580:I *9231:A2 0.000109303
5 *9580:I *9246:A2 0.00178875
6 *9580:I *9387:A2 0.000190317
7 *9580:I *9633:D[0] 2.64566e-05
8 *9580:I *421:79 0.000240463
9 *9580:I *449:59 0.000191882
10 *9580:I *460:160 0
11 *9580:I *471:10 8.19204e-05
12 *9580:I *512:94 8.41027e-06
13 *9580:I *595:29 0.000305102
14 *9580:I *595:31 2.23783e-05
15 *9580:I *595:33 0.000115026
16 *9580:I *603:10 3.46582e-05
17 *9580:I *686:27 0
18 tl_o[14] *9580:I 0.000100426
19 tl_o[50] *9580:I 6.07958e-06
20 tl_o[53] *9580:I 0.000384603
21 tl_o[58] *9580:I 0.000273671
22 *9138:A1 *9580:I 0.00142116
23 *9234:A2 *9580:I 0.000106536
24 *9255:A2 *9580:I 5.19228e-05
25 *9265:A3 *9580:I 0
26 *9270:B *9580:I 4.85635e-05
27 *9311:A1 *9580:I 3.33337e-05
28 *9573:I *9580:I 0.00123946
29 *190:10 *9580:I 0.000103833
30 *253:25 *9580:I 0.000736043
31 *296:14 *9580:I 0.000427398
32 *308:12 *9580:I 6.92736e-05
33 *325:10 *9580:I 0
34 *325:12 *9580:I 0
*RES
1 *9213:Z *9580:I 49.116 
*END

*D_NET *400 0.00878345
*CONN
*I *9581:I I *D gf180mcu_fd_sc_mcu7t5v0__dlyd_1
*I *9214:Z O *D gf180mcu_fd_sc_mcu7t5v0__and2_1
*CAP
1 *9581:I 0.000970236
2 *9214:Z 0.000970236
3 *9581:I *9219:A2 0.000350359
4 *9581:I *9283:A1 0.00180357
5 *9581:I *9598:I 8.62306e-05
6 *9581:I *9639:I 0.00171945
7 *9581:I *512:16 7.88136e-05
8 *9581:I *514:14 2.49387e-05
9 *9581:I *608:10 0.000197178
10 *9581:I *613:22 4.76733e-05
11 tl_o[13] *9581:I 3.19219e-05
12 tl_o[53] *9581:I 0.000118665
13 tl_o[58] *9581:I 0.000193889
14 *9488:I *9581:I 1.17512e-05
15 *9499:I *9581:I 0.00111983
16 *9520:I *9581:I 0.000304061
17 *9576:I *9581:I 0.000754651
*RES
1 *9214:Z *9581:I 40.528 
*END

*D_NET *401 0.0140824
*CONN
*I *9582:I I *D gf180mcu_fd_sc_mcu7t5v0__dlyd_1
*I *9453:Z O *D gf180mcu_fd_sc_mcu7t5v0__buf_1
*CAP
1 *9582:I 0.00207023
2 *9453:Z 0.00207023
3 *9582:I *9213:A1 4.86993e-06
4 *9582:I *9232:A2 0.000331829
5 *9582:I *9233:A1 0.000174581
6 *9582:I *9233:A2 0.000249416
7 *9582:I *9374:I1 3.71927e-05
8 *9582:I *9453:I 0.000138853
9 *9582:I *9556:I 0.000129484
10 *9582:I *9612:I 7.3227e-05
11 *9582:I *9632:D[7] 7.13995e-05
12 *9582:I *407:22 0.00302058
13 *9582:I *408:25 0.000490728
14 *9582:I *426:12 0
15 *9582:I *514:69 2.6126e-05
16 *9582:I *516:10 0
17 *9582:I *530:22 5.97012e-05
18 tl_o[8] *9582:I 4.17348e-05
19 *9472:I *9582:I 0.000382889
20 *9632:WEN[7] *9582:I 0.000137785
21 *295:12 *9582:I 0.000474737
22 *296:14 *9582:I 7.3227e-05
23 *332:18 *9582:I 0.000242781
24 *378:159 *9582:I 0.000129336
25 *378:182 *9582:I 0.00365143
*RES
1 *9453:Z *9582:I 42.016 
*END

*D_NET *402 0.0126622
*CONN
*I *9583:I I *D gf180mcu_fd_sc_mcu7t5v0__dlyd_1
*I *9311:Z O *D gf180mcu_fd_sc_mcu7t5v0__or2_1
*CAP
1 *9583:I 0
2 *9311:Z 0.00212638
3 *402:26 0.00212638
4 *402:26 *9213:A1 0.0010118
5 *402:26 *9225:A1 0.000633059
6 *402:26 *9225:A2 0.000873976
7 *402:26 *9271:A2 0.000197178
8 *402:26 *9272:A1 0
9 *402:26 *9381:I0 0.000336813
10 *402:26 *9594:I 0.000872375
11 *402:26 *438:29 7.8324e-05
12 *402:26 *514:48 0.000199473
13 *9238:A1 *402:26 7.00855e-06
14 *9239:B2 *402:26 0.000132619
15 *9440:D *402:26 6.39906e-05
16 *9574:I *402:26 0.000300075
17 *9632:WEN[7] *402:26 0.000258073
18 *9657:I *402:26 8.39112e-05
19 *3:50 *402:26 8.18373e-05
20 *189:28 *402:26 9.56533e-05
21 *304:18 *402:26 6.14386e-05
22 *332:18 *402:26 0.00272079
23 *367:6 *402:26 7.32209e-05
24 *367:33 *402:26 0.00032786
*RES
1 *9311:Z *402:26 49.632 
2 *402:26 *9583:I 4.5 
*END

*D_NET *403 0.00419378
*CONN
*I *9584:I I *D gf180mcu_fd_sc_mcu7t5v0__dlyd_1
*I *9454:Z O *D gf180mcu_fd_sc_mcu7t5v0__buf_1
*CAP
1 *9584:I 0.000402373
2 *9454:Z 0.000402373
3 *9584:I *9252:A2 8.15645e-05
4 *9584:I *9389:S 0.000544438
5 *9584:I *9597:I 8.55327e-05
6 *9584:I *602:12 0.00103198
7 *9473:I *9584:I 0.00163795
8 *255:14 *9584:I 7.57788e-06
*RES
1 *9454:Z *9584:I 34.942 
*END

*D_NET *404 0.0201175
*CONN
*I *9639:I I *D gf180mcu_fd_sc_mcu7t5v0__buf_3
*I *9468:I I *D gf180mcu_fd_sc_mcu7t5v0__dlyd_1
*I *9136:ZN O *D gf180mcu_fd_sc_mcu7t5v0__nand2_1
*CAP
1 *9639:I 0.00220686
2 *9468:I 0.000484277
3 *9136:ZN 0.00153928
4 *404:14 0.00423042
5 *9468:I *9223:A1 5.94545e-06
6 *9468:I *9378:S 0.00030717
7 *9468:I *9379:S 0.000858173
8 *9468:I *420:14 0.00010501
9 *9639:I *9223:A1 9.42773e-05
10 *9639:I *9283:A1 0.00158352
11 *9639:I *9347:A1 3.29303e-05
12 *9639:I *460:129 0.000121573
13 *9639:I *460:150 0.000218306
14 *9639:I *594:129 5.8775e-05
15 *404:14 *9223:A1 0.000142118
16 *404:14 *9223:A2 5.76063e-06
17 *404:14 *9234:B 1.83267e-05
18 *404:14 *9448:D 0
19 *404:14 *9450:D 0
20 *404:14 *460:129 3.93649e-05
21 *404:14 *594:8 1.34616e-05
22 *404:14 *594:32 0
23 tl_o[26] *9468:I 0.000442912
24 tl_o[49] *9639:I 1.6747e-05
25 tl_o[50] *9639:I 0.000107657
26 tl_o[54] *9468:I 2.11302e-05
27 tl_o[54] *404:14 0
28 tl_o[58] *9639:I 2.57782e-05
29 tl_o[65] *9639:I 0.000195642
30 *9136:A2 *404:14 2.13407e-05
31 *9212:A1 *404:14 3.46924e-05
32 *9212:B *404:14 2.96621e-05
33 *9234:A2 *404:14 0
34 *9263:A2 *9639:I 2.96427e-06
35 *9270:B *404:14 4.522e-05
36 *9283:A2 *9639:I 0.000431418
37 *9385:I0 *9639:I 0.00127725
38 *9388:B *9639:I 0.000392652
39 *9391:S *9639:I 0.000404912
40 *9443:D *9639:I 6.14664e-05
41 *9443:CLK *9639:I 1.45723e-05
42 *9445:D *9639:I 0.000196296
43 *9445:CLK *9639:I 0
44 *9474:I *9639:I 2.38759e-05
45 *9477:I *9639:I 0.000196614
46 *9479:I *9468:I 0.000127484
47 *9479:I *9639:I 2.23783e-05
48 *9479:I *404:14 0.000153129
49 *9481:I *404:14 3.82094e-05
50 *9545:I *404:14 0.000110319
51 *9581:I *9639:I 0.00171945
52 *245:14 *404:14 1.91917e-06
53 *256:12 *404:14 0
54 *257:18 *404:14 0.00122806
55 *295:20 *9639:I 8.04001e-05
56 *295:24 *9639:I 0.000262446
57 *381:63 *9639:I 0
58 *393:14 *9468:I 0.000365406
*RES
1 *9136:ZN *404:14 19.64 
2 *404:14 *9468:I 23.776 
3 *404:14 *9639:I 32.408 
*END

*D_NET *405 0.0213937
*CONN
*I *9260:A2 I *D gf180mcu_fd_sc_mcu7t5v0__oai21_1
*I *9257:A2 I *D gf180mcu_fd_sc_mcu7t5v0__oai32_1
*I *9240:A2 I *D gf180mcu_fd_sc_mcu7t5v0__nand2_1
*I *9238:A2 I *D gf180mcu_fd_sc_mcu7t5v0__nand2_1
*I *9386:I0 I *D gf180mcu_fd_sc_mcu7t5v0__mux2_2
*I *9258:B1 I *D gf180mcu_fd_sc_mcu7t5v0__aoi22_1
*I *9479:Z O *D gf180mcu_fd_sc_mcu7t5v0__dlyd_1
*CAP
1 *9260:A2 0.000820637
2 *9257:A2 3.58336e-05
3 *9240:A2 3.28034e-05
4 *9238:A2 0.000243143
5 *9386:I0 0
6 *9258:B1 0.000677388
7 *9479:Z 6.71804e-06
8 *405:38 0.000454504
9 *405:31 0.00110487
10 *405:25 0.00105206
11 *405:23 0.000950136
12 *405:6 0.000723689
13 *9238:A2 *9213:A1 0.00109309
14 *9238:A2 *9240:A1 3.73535e-05
15 *9238:A2 *9342:A1 0.00150415
16 *9238:A2 *433:10 0.00152106
17 *9257:A2 *9261:A1 0.000118659
18 *9257:A2 *513:24 8.67139e-05
19 *9260:A2 *9228:A1 2.7435e-05
20 *9260:A2 *9228:A2 0.000941528
21 *9260:A2 *9241:A1 2.63924e-05
22 *9260:A2 *9260:A1 2.49387e-05
23 *9260:A2 *9260:B 0.000352105
24 *9260:A2 *9612:I 0.000254122
25 *9260:A2 *513:24 0.000346299
26 *9260:A2 *530:22 8.0352e-06
27 *405:23 *594:32 3.54426e-05
28 *405:25 *9257:B2 8.62306e-05
29 *405:25 *9261:A1 0.000249416
30 *405:25 *594:32 4.97713e-05
31 *405:31 *9230:A2 0.000101334
32 *405:31 *9232:A2 4.85279e-06
33 *405:31 *9257:B2 6.71348e-05
34 *405:31 *9381:I0 3.17546e-05
35 *405:31 *9386:S 3.76302e-05
36 *405:31 *516:14 0.00128242
37 *405:31 *516:40 6.54978e-05
38 *405:31 *594:32 0.000336283
39 *405:38 *9213:A1 9.26705e-05
40 *405:38 *9240:A1 1.5015e-05
41 *405:38 *9381:I0 4.55836e-05
42 *405:38 *9386:I1 1.35288e-05
43 tl_o[20] *9258:B1 0.00157956
44 tl_o[20] *9260:A2 3.25235e-05
45 tl_o[20] *405:6 8.04285e-05
46 tl_o[22] *405:31 8.04285e-05
47 *9241:B2 *9238:A2 8.0897e-05
48 *9241:B2 *405:38 4.10312e-05
49 *9245:A1 *9260:A2 3.65693e-05
50 *9245:A2 *9260:A2 0.00018511
51 *9257:B1 *9260:A2 6.88673e-05
52 *9395:B *405:31 0.00109197
53 *9470:I *9238:A2 0.000637816
54 *9470:I *9260:A2 0.000235371
55 *9480:I *9258:B1 6.63508e-06
56 *9525:I *405:25 0.000160913
57 *9525:I *405:31 0.00040743
58 *9529:I *9258:B1 0.000144687
59 *9529:I *9260:A2 0.000541251
60 *3:40 *9258:B1 0.000453412
61 *3:50 *9260:A2 0.000185126
62 *248:8 *9260:A2 0
63 *295:20 *405:23 2.1182e-05
64 *295:20 *405:25 1.94858e-05
65 *367:33 *9260:A2 0.000344758
*RES
1 *9479:Z *405:6 4.728 
2 *405:6 *9258:B1 12.1 
3 *405:6 *405:23 4.88 
4 *405:23 *405:25 1.292 
5 *405:25 *405:31 15.9 
6 *405:31 *9386:I0 4.5 
7 *405:31 *405:38 1.292 
8 *405:38 *9238:A2 20.492 
9 *405:38 *9240:A2 4.728 
10 *405:25 *9257:A2 9.38 
11 *405:23 *9260:A2 26.816 
*END

*D_NET *406 0.048179
*CONN
*I *9634:GWEN I *D gf180mcu_fd_ip_sram__sram256x8m8wm1
*I *9632:GWEN I *D gf180mcu_fd_ip_sram__sram256x8m8wm1
*I *9546:Z O *D gf180mcu_fd_sc_mcu7t5v0__buf_12
*CAP
1 *9634:GWEN 0
2 *9632:GWEN 5.67411e-05
3 *9546:Z 0.00941687
4 *406:31 0.0139763
5 *406:29 0.0146159
6 *406:16 0.000696338
7 *406:14 0.00941687
*RES
1 *9546:Z *406:14 48.438 
2 *406:14 *406:16 4.5 
3 *406:16 *9632:GWEN 9.34471 
4 *406:16 *406:29 4.82329 
5 *406:29 *406:31 103.056 
6 *406:31 *9634:GWEN 9 
*END

*D_NET *407 0.0642107
*CONN
*I *9267:A3 I *D gf180mcu_fd_sc_mcu7t5v0__nor3_2
*I *9266:A2 I *D gf180mcu_fd_sc_mcu7t5v0__nor2_1
*I *9632:CEN I *D gf180mcu_fd_ip_sram__sram256x8m8wm1
*I *9634:CEN I *D gf180mcu_fd_ip_sram__sram256x8m8wm1
*I *9547:Z O *D gf180mcu_fd_sc_mcu7t5v0__buf_8
*CAP
1 *9267:A3 0.000180433
2 *9266:A2 0.000137336
3 *9632:CEN 0.000115359
4 *9634:CEN 4.92051e-05
5 *9547:Z 0.00226827
6 *407:57 0.0011842
7 *407:28 0.0149131
8 *407:26 0.0149017
9 *407:22 0.00349418
10 *407:20 0.00474281
11 *9266:A2 *648:14 0
12 *9267:A3 *9375:I1 2.9378e-06
13 *9267:A3 *648:34 0
14 *407:20 *9374:I1 0
15 *407:20 *9451:RN 2.22758e-05
16 *407:20 *9452:I 0.000142809
17 *407:20 *408:25 0.000860493
18 *407:20 *513:49 1.85653e-05
19 *407:20 *594:83 4.01673e-05
20 *407:22 *9213:A1 0.00147908
21 *407:22 *458:24 8.8425e-05
22 *407:22 *463:18 8.8425e-05
23 *407:57 *9141:A1 1.54509e-05
24 *407:57 *9375:I0 8.30371e-05
25 *407:57 *9449:RN 0.000162656
26 *407:57 *9451:RN 0.00126616
27 *407:57 *460:160 0
28 *407:57 *614:10 0.000734805
29 *407:57 *648:10 0
30 *407:57 *648:14 0
31 tl_o[8] *407:22 2.71882e-05
32 *9267:A2 *9266:A2 5.0131e-05
33 *9267:A2 *9267:A3 2.23477e-05
34 *9267:A2 *407:57 3.66201e-05
35 *9268:I1 *9266:A2 6.89658e-05
36 *9268:I1 *407:57 2.53613e-05
37 *9311:A1 *407:20 2.15998e-06
38 *9312:A1 *407:57 5.97012e-05
39 *9312:A3 *407:57 0.00121152
40 *9312:A4 *407:57 1.44832e-05
41 *9397:D *9267:A3 0.000376901
42 *9582:I *407:22 0.00302058
43 *9632:WEN[7] *407:22 0.00282872
44 *189:34 *407:22 0.00273129
45 *189:38 *407:22 0.00012053
46 *189:40 *407:22 0.00284437
47 *189:44 *407:22 0.00319956
48 *189:44 *407:26 3.24134e-05
49 *245:61 *407:20 0.000315086
50 *256:12 *407:20 3.73627e-05
51 *257:18 *407:20 9.99148e-05
52 *299:16 *9267:A3 3.77875e-05
53 *375:72 *9267:A3 1.10309e-05
54 *378:182 *407:22 4.47565e-05
*RES
1 *9547:Z *407:20 26.74 
2 *407:20 *407:22 51.148 
3 *407:22 *407:26 4.728 
4 *407:26 *407:28 109.212 
5 *407:28 *9634:CEN 9.342 
6 *407:22 *9632:CEN 5.146 
7 *9547:Z *407:57 18.424 
8 *407:57 *9266:A2 9.836 
9 *407:57 *9267:A3 10.596 
*END

*D_NET *408 0.0223635
*CONN
*I *9341:S I *D gf180mcu_fd_sc_mcu7t5v0__mux2_2
*I *9549:I I *D gf180mcu_fd_sc_mcu7t5v0__buf_4
*I *9333:S I *D gf180mcu_fd_sc_mcu7t5v0__mux2_2
*I *9337:S I *D gf180mcu_fd_sc_mcu7t5v0__mux2_2
*I *9452:I I *D gf180mcu_fd_sc_mcu7t5v0__buf_1
*I *9453:I I *D gf180mcu_fd_sc_mcu7t5v0__buf_1
*I *9345:S I *D gf180mcu_fd_sc_mcu7t5v0__mux2_2
*I *9467:Z O *D gf180mcu_fd_sc_mcu7t5v0__dlyd_1
*CAP
1 *9341:S 0.000380587
2 *9549:I 0.000374345
3 *9333:S 0
4 *9337:S 0.000414933
5 *9452:I 2.28127e-05
6 *9453:I 7.75262e-05
7 *9345:S 0
8 *9467:Z 1.24367e-05
9 *408:60 0.000481174
10 *408:51 0.00234248
11 *408:25 0.00178224
12 *408:14 0.00183914
13 *408:6 0.00237099
14 *9341:S *9341:I1 0.000789447
15 *9341:S *444:18 0.000334109
16 *9452:I *9233:A2 2.39622e-05
17 *9452:I *594:83 8.03759e-06
18 *9453:I *9231:A2 0.000552327
19 *9453:I *9374:I1 2.6126e-05
20 *9453:I *9612:I 9.88736e-06
21 *9549:I *9562:I 2.33409e-05
22 *9549:I *444:6 0.000255714
23 *408:6 *416:14 7.32209e-05
24 *408:14 *9259:B2 0.000104712
25 *408:14 *513:24 0.000614667
26 *408:25 *9233:A2 7.9795e-05
27 *408:25 *9243:A1 8.51896e-05
28 *408:25 *9259:B2 0.000212629
29 *408:25 *9345:I1 5.47939e-05
30 *408:25 *9374:I1 0.00015562
31 *408:25 *9646:I 0.00077469
32 *408:25 *511:55 8.96818e-05
33 *408:25 *516:18 0.000246607
34 *408:51 *9226:A2 2.17381e-05
35 *408:51 *416:14 0.000584347
36 *408:51 *441:34 0
37 *408:51 *444:18 0.000195096
38 *408:60 *9337:I1 0
39 *408:60 *444:6 4.59139e-05
40 *408:60 *444:18 5.61876e-05
41 tl_o[0] *408:14 0.000248677
42 tl_o[0] *408:25 0.000458241
43 tl_o[0] *408:51 3.49701e-05
44 tl_o[5] *408:6 7.98484e-05
45 tl_o[5] *408:51 0.000509706
46 *9337:I0 *9337:S 0.000319837
47 *9337:I0 *9549:I 0.000109091
48 *9337:I0 *408:60 0.000507313
49 *9341:I0 *9341:S 8.25974e-05
50 *9345:I0 *408:25 0.00189031
51 *9435:D *9337:S 0.000138585
52 *9435:D *408:60 9.88736e-06
53 *9497:I *9341:S 0
54 *9539:I *408:51 2.03955e-05
55 *9574:I *408:51 8.79524e-05
56 *9582:I *9453:I 0.000138853
57 *9582:I *408:25 0.000490728
58 *295:12 *408:51 0.000111721
59 *378:108 *9549:I 7.22665e-05
60 *378:182 *408:25 0.000386474
61 *393:14 *408:14 0.000146206
62 *393:14 *408:51 0
63 *407:20 *9452:I 0.000142809
64 *407:20 *408:25 0.000860493
*RES
1 *9467:Z *408:6 4.728 
2 *408:6 *408:14 11.28 
3 *408:14 *9345:S 4.5 
4 *408:14 *408:25 22.132 
5 *408:25 *9453:I 10.444 
6 *408:25 *9452:I 9.38 
7 *408:6 *408:51 22.832 
8 *408:51 *9337:S 5.336 
9 *408:51 *408:60 1.444 
10 *408:60 *9333:S 4.5 
11 *408:60 *9549:I 7.54 
12 *9337:S *9341:S 12.648 
*END

*D_NET *409 0.00966247
*CONN
*I *9166:S I *D gf180mcu_fd_sc_mcu7t5v0__mux2_2
*I *9162:S I *D gf180mcu_fd_sc_mcu7t5v0__mux2_2
*I *9158:S I *D gf180mcu_fd_sc_mcu7t5v0__mux2_2
*I *9154:S I *D gf180mcu_fd_sc_mcu7t5v0__mux2_2
*I *9150:S I *D gf180mcu_fd_sc_mcu7t5v0__mux2_2
*I *9636:Z O *D gf180mcu_fd_sc_mcu7t5v0__buf_4
*CAP
1 *9166:S 0.000221403
2 *9162:S 0
3 *9158:S 0.000218486
4 *9154:S 0
5 *9150:S 0.000255146
6 *9636:Z 0.00079654
7 *409:29 0.000385455
8 *409:14 0.000634313
9 *409:12 0.00188763
10 *409:10 0.00269337
11 *9150:S *9150:I1 0.000300836
12 *9150:S *9606:I 5.74961e-05
13 *9150:S *9607:I 0.000213178
14 *9150:S *555:8 0
15 *9158:S *9162:I1 0
16 *9158:S *9605:I 0
17 *9158:S *9606:I 3.36956e-05
18 *9166:S *554:8 0
19 *409:10 *425:32 0.00021982
20 *409:12 *9148:A2 0.000257029
21 *409:12 *425:32 0.000211545
22 *409:12 *425:42 0.000323097
23 *409:12 *425:53 0.000221076
24 *409:14 *9607:I 0.000127688
25 *409:14 *555:8 0
26 *409:29 *9162:I1 0
27 *409:29 *9606:I 7.02034e-05
28 *9150:I0 *409:12 0
29 *9150:I0 *409:14 0
30 *9154:I0 *409:12 5.94709e-06
31 *9154:I0 *409:14 7.10872e-05
32 *9162:I0 *409:12 0.000457429
33 *9416:D *409:12 0
*RES
1 *9636:Z *409:10 14.624 
2 *409:10 *409:12 14.668 
3 *409:12 *409:14 2.052 
4 *409:14 *9150:S 11.28 
5 *409:14 *409:29 5.64 
6 *409:29 *9154:S 4.5 
7 *409:29 *9158:S 5.792 
8 *409:12 *9162:S 9 
9 *409:10 *9166:S 10.14 
*END

*D_NET *410 0.0345627
*CONN
*I *9317:S I *D gf180mcu_fd_sc_mcu7t5v0__mux2_2
*I *9636:I I *D gf180mcu_fd_sc_mcu7t5v0__buf_4
*I *9548:Z O *D gf180mcu_fd_sc_mcu7t5v0__clkbuf_4
*CAP
1 *9317:S 0
2 *9636:I 0
3 *9548:Z 0.000820748
4 *410:20 0.0150752
5 *410:18 0.0157189
6 *410:12 0.00146448
7 *410:12 *9325:S 0.000143199
8 *9317:I0 *410:12 0.000228523
9 *9493:I *410:18 0.00111166
*RES
1 *9548:Z *410:12 18.82 
2 *410:12 *410:18 14.852 
3 *410:18 *410:20 110.58 
4 *410:20 *9636:I 13.5 
5 *410:12 *9317:S 4.5 
*END

*D_NET *411 0.0234759
*CONN
*I *9548:I I *D gf180mcu_fd_sc_mcu7t5v0__clkbuf_4
*I *9325:S I *D gf180mcu_fd_sc_mcu7t5v0__mux2_2
*I *9585:I I *D gf180mcu_fd_sc_mcu7t5v0__dlyd_1
*I *9329:S I *D gf180mcu_fd_sc_mcu7t5v0__mux2_2
*I *9321:S I *D gf180mcu_fd_sc_mcu7t5v0__mux2_2
*I *9549:Z O *D gf180mcu_fd_sc_mcu7t5v0__buf_4
*CAP
1 *9548:I 0
2 *9325:S 0.000389045
3 *9585:I 0
4 *9329:S 0
5 *9321:S 0.00040484
6 *9549:Z 0.00320059
7 *411:50 0.000532122
8 *411:16 0.000667729
9 *411:14 0.00421858
10 *411:12 0.0070132
11 *9321:S *9321:I1 0.000136785
12 *9321:S *9588:I 4.02664e-05
13 *9321:S *444:35 3.02712e-05
14 *9321:S *444:37 1.2427e-05
15 *9325:S *9589:I 0
16 *411:12 *9218:A2 0.000621258
17 *411:12 *9277:A1 0
18 *411:12 *444:18 0.0002586
19 *411:12 *444:31 0
20 *411:12 *594:32 1.15275e-05
21 *411:12 *594:38 0.000519274
22 *411:14 *9588:I 0.000405082
23 *411:14 *444:33 0.00123893
24 *411:16 *9588:I 0.000668422
25 *411:16 *9590:I 0.000353025
26 *411:16 *444:33 0.000133535
27 *411:16 *444:35 9.45347e-06
28 *411:50 *9589:I 0
29 *9321:I0 *9321:S 4.41641e-06
30 *9325:I0 *9325:S 6.82399e-05
31 *9333:I0 *411:12 0.000653985
32 *9337:I0 *411:12 0.00132202
33 *9341:I0 *411:12 0
34 *9574:I *411:12 0
35 *393:14 *411:12 0.000419123
36 *410:12 *9325:S 0.000143199
*RES
1 *9549:Z *411:12 33.776 
2 *411:12 *411:14 32.68 
3 *411:14 *411:16 6.308 
4 *411:16 *9321:S 10.976 
5 *411:16 *9329:S 9 
6 *411:14 *9585:I 9 
7 *9321:S *411:50 9.836 
8 *411:50 *9325:S 11.584 
9 *411:50 *9548:I 9 
*END

*D_NET *412 0.0464384
*CONN
*I *9552:I I *D gf180mcu_fd_sc_mcu7t5v0__clkbuf_4
*I *9349:S I *D gf180mcu_fd_sc_mcu7t5v0__mux2_2
*I *9357:S I *D gf180mcu_fd_sc_mcu7t5v0__mux2_2
*I *9638:I I *D gf180mcu_fd_sc_mcu7t5v0__buf_4
*I *9467:I I *D gf180mcu_fd_sc_mcu7t5v0__dlyd_1
*I *9468:Z O *D gf180mcu_fd_sc_mcu7t5v0__dlyd_1
*CAP
1 *9552:I 1.29901e-05
2 *9349:S 0.000105725
3 *9357:S 0.000421047
4 *9638:I 0
5 *9467:I 4.00988e-05
6 *9468:Z 0.000206959
7 *412:79 0.000507484
8 *412:64 0.00223548
9 *412:45 0.00198699
10 *412:31 0.00463941
11 *412:10 0.00147382
12 *9357:S *419:14 7.93585e-05
13 *412:10 *9258:A1 0.000905848
14 *412:10 *9259:A2 3.00299e-05
15 *412:31 *9258:A1 0.000268954
16 *412:31 *559:24 0.000239235
17 *412:45 *9141:A2 0.000209085
18 *412:45 *9179:A2 0.000803732
19 *412:45 *9301:A1 9.42885e-05
20 *412:45 *9377:I0 0.00104372
21 *412:45 *9640:I 6.83143e-05
22 *412:45 *431:26 0.00254624
23 *412:45 *439:18 0.000372907
24 *412:45 *448:69 0.000242033
25 *412:45 *460:160 0.000113519
26 *412:45 *512:16 2.92344e-05
27 *412:45 *559:24 0.0081057
28 *412:45 *651:6 0.00127568
29 *412:64 *9221:A1 3.35674e-05
30 *412:64 *9640:I 0.000364528
31 *412:64 *421:19 0.000314646
32 *412:64 *445:14 0.000233597
33 *412:64 *472:10 5.52979e-05
34 *412:64 *495:18 0.000245285
35 *412:64 *512:16 4.83913e-05
36 *412:64 *613:22 0.000249869
37 *412:79 *9390:I0 9.61914e-05
38 *412:79 *419:14 0
39 *412:79 *445:14 0.000111416
40 tl_o[27] *412:31 0.000197154
41 tl_o[56] *412:31 0.000424097
42 tl_o[6] *412:64 7.10235e-05
43 *9255:A1 *412:64 0.000506492
44 *9262:B *412:10 0.000171721
45 *9262:B *412:31 0.00123364
46 *9357:I0 *9357:S 7.76895e-06
47 *9357:I0 *412:79 0.000558395
48 *9408:D *9349:S 6.93808e-05
49 *9408:D *412:79 0.00043899
50 *9499:I *412:64 0.00387167
51 *9499:I *412:79 8.74028e-05
52 *9500:I *9357:S 0.00131474
53 *9525:I *412:10 0.000121387
54 *9526:I *412:45 8.06703e-05
55 *9526:I *412:64 0.00206921
56 *9540:I *412:64 0.000190299
57 *9576:I *412:64 0.00163245
58 *192:8 *412:45 4.10312e-05
59 *192:10 *412:45 0.000149982
60 *205:12 *9349:S 3.37994e-05
61 *207:12 *9552:I 3.73535e-05
62 *207:12 *412:79 0.000194624
63 *258:20 *412:45 0
64 *278:10 *412:45 0.000741951
65 *281:16 *412:45 0.00186406
66 *393:14 *412:31 0.000518403
*RES
1 *9468:Z *412:10 11.584 
2 *412:10 *9467:I 9.228 
3 *412:10 *412:31 20.856 
4 *412:31 *412:45 47.548 
5 *412:45 *9638:I 4.5 
6 *412:31 *412:64 29.748 
7 *412:64 *9357:S 13.028 
8 *412:64 *412:79 9.668 
9 *412:79 *9349:S 5.412 
10 *412:79 *9552:I 4.728 
*END

*D_NET *413 0.0262084
*CONN
*I *9178:S I *D gf180mcu_fd_sc_mcu7t5v0__mux2_2
*I *9174:S I *D gf180mcu_fd_sc_mcu7t5v0__mux2_2
*I *9170:S I *D gf180mcu_fd_sc_mcu7t5v0__mux2_2
*I *9637:Z O *D gf180mcu_fd_sc_mcu7t5v0__buf_4
*CAP
1 *9178:S 0
2 *9174:S 0.000155774
3 *9170:S 0.000378842
4 *9637:Z 0.000762742
5 *413:28 0.00890012
6 *413:26 0.00882531
7 *413:18 0.00110796
8 *413:14 0.0014109
9 *9170:S *442:23 1.83267e-05
10 *9174:S *443:41 4.47134e-05
11 *413:14 *9176:A1 1.54509e-05
12 *413:14 *426:29 0.000197213
13 *413:18 *434:12 4.4998e-05
14 *413:18 *443:41 0.000172636
15 *413:26 *434:25 7.37658e-05
16 *413:26 *443:41 3.4631e-05
17 *413:28 *9168:A1 0
18 *413:28 *425:14 0
19 *413:28 *434:25 0
20 *413:28 *434:29 0
21 *413:28 *434:35 0
22 *9165:A1 *413:28 0
23 *9165:A2 *413:28 0.000306608
24 *9169:A2 *413:28 0.000306608
25 *9170:I0 *9170:S 0.000161681
26 *9170:I0 *413:28 0
27 *9174:I0 *9174:S 5.20263e-05
28 *9178:I0 *413:14 0.000360189
29 *9422:D *9174:S 2.9378e-06
30 *9423:CLK *413:14 2.22758e-05
31 *220:10 *413:14 0.000165222
32 *261:18 *413:14 0.000185122
33 *261:24 *413:14 0
34 *261:24 *413:18 0.00250232
35 *330:35 *413:28 0
36 *379:52 *413:28 0
37 *379:58 *413:28 0
*RES
1 *9637:Z *413:14 19.96 
2 *413:14 *413:18 12.632 
3 *413:18 *413:26 11.128 
4 *413:26 *413:28 61.788 
5 *413:28 *9170:S 11.508 
6 *413:18 *9174:S 9.988 
7 *413:14 *9178:S 4.5 
*END

*D_NET *414 0.0413144
*CONN
*I *9637:I I *D gf180mcu_fd_sc_mcu7t5v0__buf_4
*I *9183:S I *D gf180mcu_fd_sc_mcu7t5v0__mux2_2
*I *9638:Z O *D gf180mcu_fd_sc_mcu7t5v0__buf_4
*CAP
1 *9637:I 0.00226305
2 *9183:S 0
3 *9638:Z 0.00180203
4 *414:17 0.00888064
5 *414:10 0.00841962
6 *414:10 *439:35 0.000993076
7 *414:17 *9180:A1 0
8 *9183:I0 *414:10 7.24161e-06
9 *9183:I0 *414:17 0.000859318
10 *9466:I *414:10 0.000386421
11 *192:10 *414:10 0.0075115
12 *192:10 *414:17 0.00946019
13 *261:18 *9637:I 0
14 *331:10 *414:17 0.000285843
15 *379:46 *9637:I 0.000445453
*RES
1 *9638:Z *414:10 25.096 
2 *414:10 *9183:S 4.5 
3 *414:10 *414:17 61.636 
4 *414:17 *9637:I 31.056 
*END

*D_NET *415 0.0137103
*CONN
*I *9211:S I *D gf180mcu_fd_sc_mcu7t5v0__mux2_2
*I *9207:S I *D gf180mcu_fd_sc_mcu7t5v0__mux2_2
*I *9203:S I *D gf180mcu_fd_sc_mcu7t5v0__mux2_2
*I *9199:S I *D gf180mcu_fd_sc_mcu7t5v0__mux2_2
*I *9195:S I *D gf180mcu_fd_sc_mcu7t5v0__mux2_2
*I *9550:Z O *D gf180mcu_fd_sc_mcu7t5v0__buf_3
*CAP
1 *9211:S 0.000583309
2 *9207:S 6.87759e-05
3 *9203:S 7.289e-05
4 *9199:S 7.88705e-05
5 *9195:S 0.000122618
6 *9550:Z 0.00046349
7 *415:47 0.000796346
8 *415:34 0.000309322
9 *415:23 0.00102267
10 *415:12 0.00143773
11 *9195:S *9191:I1 7.24161e-06
12 *9199:S *9199:I1 7.71175e-06
13 *9203:S *9199:I1 0.000251045
14 *9207:S *9199:I1 0
15 *9207:S *9207:I1 1.06338e-05
16 *9211:S *9199:I1 0
17 *9211:S *9207:I1 3.69285e-05
18 *9211:S *446:14 2.57058e-06
19 *9211:S *446:21 8.02469e-05
20 *415:23 *9201:A1 0.000874893
21 *415:23 *9209:A2 0.000437703
22 *415:23 *446:40 0.00114466
23 *415:34 *446:40 1.04712e-05
24 *415:47 *446:34 3.09489e-05
25 *415:47 *446:36 5.06666e-05
26 *415:47 *446:40 8.59272e-06
27 *9195:I0 *415:12 0.00106816
28 *9199:I0 *415:23 0.000681126
29 *9203:I0 *415:23 0.000389329
30 *9203:I0 *415:34 0.000134994
31 *9207:I0 *9207:S 8.66359e-05
32 *9207:I0 *415:23 7.33578e-06
33 *9207:I0 *415:34 7.14743e-05
34 *9207:I0 *415:47 1.36746e-05
35 *9210:A1 *9199:S 4.97712e-06
36 *9211:I0 *9211:S 0.000441055
37 *9429:D *415:23 9.77285e-05
38 *228:8 *9199:S 1.29518e-05
39 *381:136 *415:12 0.00141963
40 *381:136 *415:23 0.000912756
41 *384:8 *415:12 1.18942e-05
42 *384:8 *415:23 2.00012e-05
43 *386:12 *415:47 0.000352987
44 *387:14 *9211:S 7.3227e-05
*RES
1 *9550:Z *415:12 18.348 
2 *415:12 *9195:S 9.684 
3 *415:12 *415:23 15.276 
4 *415:23 *9199:S 9.532 
5 *415:23 *415:34 1.14 
6 *415:34 *9203:S 9.684 
7 *415:34 *415:47 5.792 
8 *415:47 *9207:S 5.032 
9 *415:47 *9211:S 8.604 
*END

*D_NET *416 0.00970938
*CONN
*I *9130:I I *D gf180mcu_fd_sc_mcu7t5v0__clkinv_1
*I *9258:B2 I *D gf180mcu_fd_sc_mcu7t5v0__aoi22_1
*I *9259:B1 I *D gf180mcu_fd_sc_mcu7t5v0__oai22_1
*I *9480:Z O *D gf180mcu_fd_sc_mcu7t5v0__dlyd_1
*CAP
1 *9130:I 0.000681656
2 *9258:B2 0.000636689
3 *9259:B1 1.76545e-05
4 *9480:Z 0
5 *416:14 0.00112767
6 *416:4 0.00115498
7 *9130:I *9592:I 0.000136128
8 *9130:I *441:34 0.000310691
9 *9130:I *514:14 8.85716e-05
10 *9258:B2 *9258:A2 0.000247403
11 *9258:B2 *9379:I0 6.01311e-06
12 *9259:B1 *9259:B2 3.91978e-05
13 *416:14 *9226:A2 2.66232e-05
14 *416:14 *9259:B2 0.000177796
15 *416:14 *9595:I 0.000100627
16 *416:14 *420:14 0.00053414
17 *416:14 *513:24 4.96589e-05
18 *416:14 *516:48 1.50458e-05
19 tl_o[0] *9130:I 0
20 tl_o[0] *9259:B1 1.15275e-05
21 tl_o[0] *416:14 0.000182527
22 tl_o[14] *9258:B2 3.02664e-05
23 tl_o[20] *9130:I 0.000292079
24 tl_o[20] *9258:B2 0.000203975
25 tl_o[54] *9258:B2 9.27021e-05
26 tl_o[5] *416:14 0.00016398
27 *9261:A2 *9258:B2 2.29732e-05
28 *9262:B *9258:B2 0
29 *9474:I *9130:I 0.000886521
30 *9537:I *9258:B2 7.24887e-06
31 *9537:I *416:14 1.95806e-05
32 *9538:I *9258:B2 4.03922e-06
33 *9538:I *9259:B1 0.000142194
34 *9538:I *416:14 0.00118101
35 *9539:I *416:14 0.000272636
36 *9543:I *9258:B2 5.37329e-06
37 *3:40 *9130:I 0.000142141
38 *380:57 *9130:I 4.04938e-05
39 *408:6 *416:14 7.32209e-05
40 *408:51 *416:14 0.000584347
*RES
1 *9480:Z *416:4 4.5 
2 *416:4 *416:14 16.22 
3 *416:14 *9259:B1 4.88 
4 *416:14 *9258:B2 17.604 
5 *416:4 *9130:I 19.884 
*END

*D_NET *417 0.0612768
*CONN
*I *9550:I I *D gf180mcu_fd_sc_mcu7t5v0__buf_3
*I *9191:S I *D gf180mcu_fd_sc_mcu7t5v0__mux2_2
*I *9551:Z O *D gf180mcu_fd_sc_mcu7t5v0__buf_4
*CAP
1 *9550:I 0.000136406
2 *9191:S 0.000159405
3 *9551:Z 9.65094e-05
4 *417:12 0.00831035
5 *417:10 0.00838386
6 *9550:I *429:6 0.000189264
7 *9550:I *429:40 5.77094e-05
8 *417:12 *430:14 0.0438451
9 *9191:I0 *9550:I 1.06223e-05
10 *9195:I0 *9191:S 8.75318e-05
*RES
1 *9551:Z *417:10 14.032 
2 *417:10 *417:12 111.796 
3 *417:12 *9191:S 13.728 
4 *9191:S *9550:I 10.064 
*END

*D_NET *418 0.0176367
*CONN
*I *9551:I I *D gf180mcu_fd_sc_mcu7t5v0__buf_4
*I *9145:S I *D gf180mcu_fd_sc_mcu7t5v0__mux2_2
*I *9187:S I *D gf180mcu_fd_sc_mcu7t5v0__mux2_2
*I *9353:S I *D gf180mcu_fd_sc_mcu7t5v0__mux2_2
*I *9552:Z O *D gf180mcu_fd_sc_mcu7t5v0__clkbuf_4
*CAP
1 *9551:I 0
2 *9145:S 0.000248727
3 *9187:S 0
4 *9353:S 0.000418574
5 *9552:Z 0.000192539
6 *418:39 0.000278342
7 *418:35 0.00648259
8 *418:33 0.00655282
9 *418:6 0.000511267
10 *9353:S *9633:D[2] 0.000191507
11 *9353:S *448:49 0.00010531
12 *418:6 *9187:I1 3.73627e-05
13 *418:6 *9633:D[2] 0.000435105
14 *418:6 *448:49 0
15 *418:33 *9284:A1 0.000377606
16 *418:35 *9285:A1 0.000218118
17 *418:35 *9601:I 0
18 *418:35 *9614:I 0.000459122
19 *418:35 *9648:I 0
20 *418:35 *447:10 0
21 *418:35 *448:12 0.000262332
22 *9145:I0 *9145:S 0.000389749
23 *9145:I0 *418:39 3.68392e-05
24 *9187:I0 *418:6 0.0002082
25 *9284:A2 *9353:S 9.54229e-05
26 *9285:A2 *418:33 0
27 *9353:I0 *9353:S 9.17202e-06
28 *380:8 *9353:S 2.6126e-05
29 *380:25 *9353:S 8.78761e-05
30 *380:25 *418:6 1.20079e-05
31 *380:152 *418:35 0
*RES
1 *9552:Z *418:6 7.008 
2 *418:6 *9353:S 16.236 
3 *418:6 *9187:S 4.5 
4 *9353:S *418:33 9.988 
5 *418:33 *418:35 47.804 
6 *418:35 *418:39 4.728 
7 *418:39 *9145:S 6.704 
8 *418:39 *9551:I 4.5 
*END

*D_NET *419 0.0216649
*CONN
*I *9369:S I *D gf180mcu_fd_sc_mcu7t5v0__mux2_2
*I *9373:S I *D gf180mcu_fd_sc_mcu7t5v0__mux2_2
*I *9365:S I *D gf180mcu_fd_sc_mcu7t5v0__mux2_2
*I *9361:S I *D gf180mcu_fd_sc_mcu7t5v0__mux2_2
*I *9639:Z O *D gf180mcu_fd_sc_mcu7t5v0__buf_3
*CAP
1 *9369:S 0.000189856
2 *9373:S 4.08799e-05
3 *9365:S 0.000173122
4 *9361:S 0.000362818
5 *9639:Z 0.00120321
6 *419:40 0.000236849
7 *419:29 0.00165219
8 *419:27 0.00497544
9 *419:14 0.00506852
10 *9361:S *9599:I 9.84201e-05
11 *9361:S *448:20 0
12 *9365:S *447:16 3.17546e-05
13 *9369:S *9369:I1 0.000101612
14 *9369:S *9603:I 0.00069853
15 *9369:S *447:25 0.000553434
16 *9369:S *447:36 0.000151957
17 *419:14 *9248:A1 0.000126029
18 *419:14 *9347:A1 0.000479088
19 *419:14 *9390:I0 2.78329e-05
20 *419:14 *9390:S 2.22758e-05
21 *419:14 *9599:I 0.000194861
22 *419:14 *445:14 8.49926e-06
23 *419:14 *448:20 0
24 *419:27 *9648:I 0
25 *419:27 *445:20 0
26 *419:27 *447:10 0.000427194
27 *419:29 *9602:I 0.000980044
28 *419:29 *9603:I 0.000959477
29 *419:29 *447:10 0.00165172
30 *419:29 *447:16 0.000279004
31 *419:40 *9603:I 0.000335667
32 *419:40 *447:16 6.35236e-05
33 *419:40 *447:25 0.000278996
34 *9255:A1 *419:14 2.36279e-05
35 *9357:I0 *9361:S 1.87427e-05
36 *9357:I0 *419:14 7.54445e-06
37 *9357:S *419:14 7.93585e-05
38 *9369:I0 *9369:S 5.76373e-06
39 *9373:I0 *9365:S 0
40 *9373:I0 *9369:S 0
41 *9373:I0 *9373:S 1.3758e-05
42 *9408:D *419:14 0
43 *9499:I *419:14 0
44 *9499:I *419:27 0
45 *9502:I *419:27 0.000143266
46 *412:79 *419:14 0
*RES
1 *9639:Z *419:14 21.48 
2 *419:14 *9361:S 6.856 
3 *419:14 *419:27 31.632 
4 *419:27 *419:29 18.696 
5 *419:29 *9365:S 9.988 
6 *419:29 *419:40 0.836 
7 *419:40 *9373:S 9.228 
8 *419:40 *9369:S 11.888 
*END

*D_NET *420 0.0119831
*CONN
*I *9640:I I *D gf180mcu_fd_sc_mcu7t5v0__clkbuf_4
*I *9553:I I *D gf180mcu_fd_sc_mcu7t5v0__buf_4
*I *9379:S I *D gf180mcu_fd_sc_mcu7t5v0__mux2_2
*I *9378:S I *D gf180mcu_fd_sc_mcu7t5v0__mux2_2
*I *9469:Z O *D gf180mcu_fd_sc_mcu7t5v0__dlyd_1
*CAP
1 *9640:I 0.000488301
2 *9553:I 1.33169e-05
3 *9379:S 8.26484e-05
4 *9378:S 0.000510697
5 *9469:Z 5.99637e-05
6 *420:14 0.00157941
7 *420:6 0.00154765
8 *9378:S *9379:I0 0.00030717
9 *9379:S *9379:I0 0.000772641
10 *9379:S *9379:I1 0
11 *9553:I *9592:I 8.55242e-05
12 *9640:I *9378:I0 0.00022747
13 *9640:I *9378:I1 0
14 *9640:I *512:16 5.50406e-05
15 *420:14 *9378:I1 4.75362e-05
16 *420:14 *9592:I 0.000185138
17 *420:14 *9595:I 2.6126e-05
18 *420:14 *514:14 0.000175388
19 tl_o[0] *9553:I 1.20079e-05
20 tl_o[0] *420:14 0.000215402
21 tl_o[23] *420:14 0.0006423
22 tl_o[56] *9640:I 0
23 tl_o[6] *9640:I 0.00013273
24 *9432:D *420:14 0.000518671
25 *9468:I *9378:S 0.00030717
26 *9468:I *9379:S 0.000858173
27 *9468:I *420:14 0.00010501
28 *9536:I *420:14 2.65969e-05
29 *9537:I *420:14 0.000126305
30 *9539:I *420:14 6.47993e-06
31 *393:14 *9640:I 0.00190128
32 *393:14 *420:14 0
33 *412:45 *9640:I 6.83143e-05
34 *412:64 *9640:I 0.000364528
35 *416:14 *420:14 0.00053414
*RES
1 *9469:Z *420:6 4.88 
2 *420:6 *420:14 20.096 
3 *420:14 *9378:S 5.336 
4 *420:14 *9379:S 6.856 
5 *420:6 *9553:I 4.728 
6 *9378:S *9640:I 24.764 
*END

*D_NET *421 0.0265038
*CONN
*I *9389:S I *D gf180mcu_fd_sc_mcu7t5v0__mux2_2
*I *9388:A2 I *D gf180mcu_fd_sc_mcu7t5v0__oai21_1
*I *9390:S I *D gf180mcu_fd_sc_mcu7t5v0__mux2_2
*I *9387:A2 I *D gf180mcu_fd_sc_mcu7t5v0__nand2_1
*I *9384:S I *D gf180mcu_fd_sc_mcu7t5v0__mux2_2
*I *9382:S I *D gf180mcu_fd_sc_mcu7t5v0__mux2_2
*I *9385:S I *D gf180mcu_fd_sc_mcu7t5v0__mux2_2
*I *9640:Z O *D gf180mcu_fd_sc_mcu7t5v0__clkbuf_4
*CAP
1 *9389:S 0.000125753
2 *9388:A2 0.000127541
3 *9390:S 0.000743632
4 *9387:A2 0.000299746
5 *9384:S 0
6 *9382:S 0.000186386
7 *9385:S 7.3869e-05
8 *9640:Z 0
9 *421:79 0.000428995
10 *421:54 0.000959493
11 *421:41 0.000591983
12 *421:19 0.000329153
13 *421:13 0.000398883
14 *421:4 7.79073e-05
15 *9382:S *9214:A1 0.000297936
16 *9382:S *9382:I0 8.55242e-05
17 *9385:S *594:135 9.58084e-05
18 *9387:A2 *9215:A1 0.000362727
19 *9388:A2 *9235:A2 8.04139e-05
20 *9388:A2 *9269:A1 1.34615e-05
21 *9388:A2 *9282:A1 7.2853e-05
22 *9388:A2 *9282:A2 0.000194839
23 *9388:A2 *438:125 7.2647e-05
24 *9388:A2 *471:10 0.000145096
25 *9389:S *9221:A1 7.83779e-05
26 *9389:S *9246:A2 0.000135941
27 *9389:S *9252:A1 0.000281279
28 *9389:S *471:10 0.000324241
29 *9389:S *471:21 0.000700564
30 *9390:S *9390:I0 1.75557e-05
31 *9390:S *9390:I1 0.00104475
32 *421:13 *594:135 3.00299e-05
33 *421:41 *475:16 0.000338901
34 *421:41 *514:14 0.000132183
35 *421:41 *594:135 0.000168122
36 *421:54 *475:16 0.000202494
37 *421:79 *9246:A2 0.00076875
38 *421:79 *471:10 0.000342093
39 *421:79 *475:16 0.000629489
40 tl_o[24] *9389:S 2.96621e-05
41 tl_o[53] *9387:A2 2.23783e-05
42 tl_o[53] *9390:S 0.000121276
43 tl_o[58] *421:41 0.000333432
44 tl_o[58] *421:54 0.000221419
45 tl_o[58] *421:79 0.000137785
46 tl_o[65] *9385:S 5.14116e-06
47 tl_o[6] *421:19 0.000170317
48 *9250:A3 *9387:A2 3.1146e-05
49 *9250:A3 *9390:S 0.000752959
50 *9255:A2 *9387:A2 0.00130628
51 *9384:I0 *421:41 0.000159942
52 *9385:I0 *9385:S 0.000701167
53 *9385:I0 *421:13 8.55242e-05
54 *9385:I0 *421:41 0.000508187
55 *9473:I *9388:A2 0.000180489
56 *9473:I *9389:S 0.000266746
57 *9474:I *9387:A2 0.000854247
58 *9474:I *9390:S 0.00113127
59 *9475:I *9390:S 0.00283011
60 *9520:I *9385:S 0.0005421
61 *9540:I *421:41 6.23271e-05
62 *9580:I *9387:A2 0.000190317
63 *9580:I *421:79 0.000240463
64 *9584:I *9389:S 0.000544438
65 *329:26 *9390:S 0.00342579
66 *375:94 *9382:S 0.00033529
67 *380:25 *9390:S 1.7269e-05
68 *412:64 *421:19 0.000314646
69 *419:14 *9390:S 2.22758e-05
*RES
1 *9640:Z *421:4 4.5 
2 *421:4 *9385:S 6.552 
3 *421:4 *421:13 0.228 
4 *421:13 *421:19 10.748 
5 *421:19 *9382:S 6.704 
6 *421:19 *9384:S 4.5 
7 *421:13 *421:41 12.42 
8 *421:41 *9387:A2 19.2 
9 *421:41 *421:54 0.684 
10 *421:54 *9390:S 31.436 
11 *421:54 *421:79 8.376 
12 *421:79 *9388:A2 10.976 
13 *421:79 *9389:S 12.648 
*END

*D_NET *422 0.0302996
*CONN
*I *9234:B I *D gf180mcu_fd_sc_mcu7t5v0__oai21_1
*I *9395:A1 I *D gf180mcu_fd_sc_mcu7t5v0__oai21_1
*I *9380:S I *D gf180mcu_fd_sc_mcu7t5v0__mux2_2
*I *9386:S I *D gf180mcu_fd_sc_mcu7t5v0__mux2_2
*I *9394:A2 I *D gf180mcu_fd_sc_mcu7t5v0__nand2_1
*I *9381:S I *D gf180mcu_fd_sc_mcu7t5v0__mux2_2
*I *9383:S I *D gf180mcu_fd_sc_mcu7t5v0__mux2_2
*I *9553:Z O *D gf180mcu_fd_sc_mcu7t5v0__buf_4
*CAP
1 *9234:B 0.000420582
2 *9395:A1 7.1013e-05
3 *9380:S 7.10995e-05
4 *9386:S 0.000200875
5 *9394:A2 0.000315145
6 *9381:S 0.000313859
7 *9383:S 0
8 *9553:Z 0.000111821
9 *422:85 0.00117083
10 *422:48 0.00179832
11 *422:31 0.00214779
12 *422:20 0.000633605
13 *422:14 0.000638594
14 *422:10 0.00127658
15 *9234:B *9134:A2 3.91644e-05
16 *9234:B *513:24 0.000138153
17 *9234:B *594:83 4.40124e-05
18 *9380:S *9380:I1 0.000142809
19 *9381:S *9220:A1 0.000126273
20 *9381:S *9381:I0 0.000291299
21 *9381:S *9381:I1 3.23347e-05
22 *9381:S *9383:I1 4.3343e-05
23 *9381:S *9593:I 0.000164563
24 *9386:S *9381:I0 0.00073894
25 *9386:S *594:32 0.000718612
26 *9394:A2 *9381:I0 0.000421322
27 *9394:A2 *9394:A1 2.6126e-05
28 *9394:A2 *9632:D[7] 8.55624e-05
29 *9394:A2 *449:16 4.40836e-05
30 *9394:A2 *460:14 4.94053e-05
31 *9394:A2 *594:32 0.00143632
32 *422:10 *516:14 0.000829551
33 *422:14 *9383:I0 0.000101893
34 *422:20 *9380:I1 0.000453567
35 *422:20 *9383:I0 7.83779e-05
36 *422:31 *9380:I1 7.37597e-05
37 *422:31 *9383:I0 0.000310356
38 *422:31 *9383:I1 0.000700202
39 *422:31 *9593:I 0.000421548
40 *422:48 *9381:I0 0
41 *422:85 *9226:A1 0.00129831
42 *422:85 *9383:I0 4.88903e-05
43 *422:85 *9559:I 4.58601e-06
44 *9135:A2 *9234:B 3.65162e-05
45 *9234:A1 *9234:B 4.84399e-05
46 *9245:A1 *9234:B 4.9551e-05
47 *9333:I0 *9394:A2 0.000317373
48 *9395:A2 *9395:A1 3.95622e-05
49 *9395:B *9394:A2 4.47459e-05
50 *9395:B *9395:A1 7.30844e-05
51 *9395:B *422:85 0
52 *9434:D *422:14 0.000787065
53 *9470:I *9234:B 0.00155996
54 *9470:I *422:85 0.000644146
55 *9484:I *422:14 0.00255487
56 *9484:I *422:85 0.000403738
57 *9531:I *422:48 0.00011747
58 *9535:I *9380:S 5.01486e-05
59 *9535:I *422:20 0.000129715
60 *9538:I *9380:S 0
61 *9538:I *422:31 0.000285375
62 *9539:I *422:85 8.69558e-05
63 *9542:I *9380:S 2.65866e-05
64 *9577:I *9234:B 0.00200319
65 *9577:I *9394:A2 0.000299226
66 *9577:I *422:85 0.000651006
67 *9655:I *9234:B 0.00039687
68 *204:8 *9394:A2 0.000142182
69 *295:20 *422:10 0.000357224
70 *328:12 *9394:A2 0.000378601
71 *370:53 *9234:B 0.000679213
72 *371:22 *9234:B 1.66527e-05
73 *380:47 *9234:B 6.57222e-06
74 *380:57 *9234:B 2.41132e-05
75 *404:14 *9234:B 1.83267e-05
76 *405:31 *9386:S 3.76302e-05
*RES
1 *9553:Z *422:10 15.704 
2 *422:10 *422:14 11.264 
3 *422:14 *422:20 5.868 
4 *422:20 *9383:S 4.5 
5 *422:20 *422:31 11.796 
6 *422:31 *9381:S 11.584 
7 *422:31 *422:48 15.916 
8 *422:48 *9394:A2 14.776 
9 *422:48 *9386:S 11.736 
10 *422:14 *9380:S 9.684 
11 *422:10 *422:85 11.644 
12 *422:85 *9395:A1 9.532 
13 *422:85 *9234:B 17.208 
*END

*D_NET *423 0.00732997
*CONN
*I *9556:I I *D gf180mcu_fd_sc_mcu7t5v0__buf_4
*I *9554:I I *D gf180mcu_fd_sc_mcu7t5v0__clkbuf_4
*I *9343:A2 I *D gf180mcu_fd_sc_mcu7t5v0__nand2_1
*I *9470:Z O *D gf180mcu_fd_sc_mcu7t5v0__dlyd_1
*CAP
1 *9556:I 0.000633274
2 *9554:I 1.08418e-05
3 *9343:A2 0.000126414
4 *9470:Z 0
5 *423:8 0.000266287
6 *423:6 0.000762305
7 *9343:A2 *9632:D[6] 8.89666e-06
8 *9554:I *9394:A1 0.000139861
9 *9554:I *9632:D[7] 0.000139861
10 *9272:A3 *9343:A2 0.000943478
11 *9272:A3 *423:8 0.000308225
12 *9340:A1 *9343:A2 5.9359e-05
13 *9577:I *423:8 7.2964e-06
14 *9582:I *9556:I 0.000129484
15 *9651:I *9343:A2 0.000268227
16 *9657:I *9556:I 0.000169809
17 *9665:I *9343:A2 0.000130472
18 *371:22 *9556:I 0.000700594
19 *371:22 *423:8 0.000139876
20 *375:74 *9343:A2 0.000720096
21 *375:74 *9556:I 0.00121419
22 *375:74 *423:8 0.000451128
*RES
1 *9470:Z *423:6 9 
2 *423:6 *423:8 2.508 
3 *423:8 *9343:A2 13.104 
4 *423:8 *9554:I 9.38 
5 *423:6 *9556:I 16.752 
*END

*D_NET *424 0.0260462
*CONN
*I *9339:A2 I *D gf180mcu_fd_sc_mcu7t5v0__nand2_1
*I *9331:A2 I *D gf180mcu_fd_sc_mcu7t5v0__nand2_1
*I *9327:A2 I *D gf180mcu_fd_sc_mcu7t5v0__nand2_1
*I *9319:A2 I *D gf180mcu_fd_sc_mcu7t5v0__nand2_1
*I *9315:A2 I *D gf180mcu_fd_sc_mcu7t5v0__nand2_1
*I *9323:A2 I *D gf180mcu_fd_sc_mcu7t5v0__nand2_1
*I *9335:A2 I *D gf180mcu_fd_sc_mcu7t5v0__nand2_1
*I *9554:Z O *D gf180mcu_fd_sc_mcu7t5v0__clkbuf_4
*CAP
1 *9339:A2 5.42365e-06
2 *9331:A2 3.52e-05
3 *9327:A2 0
4 *9319:A2 0.000106941
5 *9315:A2 0.00029756
6 *9323:A2 7.80418e-05
7 *9335:A2 0.000103842
8 *9554:Z 0.000236743
9 *424:39 0.000595224
10 *424:33 0.000810812
11 *424:31 0.0062484
12 *424:29 0.00738373
13 *424:21 0.00189788
14 *424:19 0.00060662
15 *424:8 0.000698682
16 *9315:A2 *9315:A1 0.000210554
17 *9315:A2 *9632:D[3] 6.03838e-05
18 *9323:A2 *9323:A1 0.000251045
19 *9331:A2 *9632:D[5] 5.75752e-06
20 *9335:A2 *9335:A1 0.00013063
21 *9335:A2 *460:30 4.38876e-05
22 *9339:A2 *9339:A1 8.55327e-05
23 *9339:A2 *9632:D[6] 8.55327e-05
24 *424:8 *9271:A1 7.54771e-06
25 *424:8 *9271:A2 2.32864e-05
26 *424:8 *460:30 1.49066e-06
27 *424:19 *9335:A1 0.000176126
28 *424:19 *9343:A1 6.33531e-06
29 *424:19 *438:12 5.89191e-05
30 *424:19 *460:22 0.000335667
31 *424:29 *9331:A1 0.000216304
32 *424:39 *9323:A1 0.00010276
33 *9317:I0 *9315:A2 8.54388e-05
34 *9320:A2 *9319:A2 0.000108522
35 *9320:A2 *9323:A2 0
36 *9320:A2 *424:39 5.75659e-05
37 *9324:A1 *9315:A2 0.000127282
38 *9324:A2 *424:39 9.17202e-06
39 *9325:I0 *424:33 0.000671334
40 *9325:I0 *424:39 0.00033338
41 *9328:A1 *424:33 0
42 *9328:A1 *424:39 0
43 *9329:I0 *424:31 3.02683e-05
44 *9332:A1 *424:29 0.00104971
45 *9332:A2 *424:29 0.000340241
46 *9336:A1 *9331:A2 2.22758e-05
47 *9344:A1 *424:8 4.73876e-05
48 *9344:A2 *9335:A2 7.88344e-05
49 *9344:A2 *424:8 0.000142673
50 *9344:A2 *424:19 5.13352e-06
51 *9400:CLK *9315:A2 0.000237595
52 *9402:CLK *9319:A2 0.00018401
53 *9406:CLK *9335:A2 2.6126e-05
54 *9651:I *424:29 0
55 *197:10 *9315:A2 0.000113344
56 *199:10 *9315:A2 0.000916714
57 *199:10 *424:39 0.000248226
58 *200:10 *424:31 5.94709e-05
59 *200:10 *424:33 6.13559e-05
60 *375:74 *424:19 0
61 *375:74 *424:21 0
62 *375:74 *424:29 0
63 *378:10 *424:29 0
64 *378:10 *424:31 0
65 *378:12 *424:31 0
66 *378:71 *424:19 8.64281e-06
67 *378:71 *424:21 5.89152e-05
68 *378:71 *424:29 0.000101081
69 *378:80 *424:19 1.45899e-05
*RES
1 *9554:Z *424:8 6.172 
2 *424:8 *9335:A2 5.488 
3 *424:8 *424:19 7.464 
4 *424:19 *424:21 1.748 
5 *424:21 *424:29 14.82 
6 *424:29 *424:31 41.8 
7 *424:31 *424:33 3.42 
8 *424:33 *424:39 7.084 
9 *424:39 *9323:A2 5.184 
10 *424:39 *9315:A2 18.364 
11 *424:33 *9319:A2 10.14 
12 *424:31 *9327:A2 9 
13 *424:21 *9331:A2 9.228 
14 *424:19 *9339:A2 9.228 
*END

*D_NET *425 0.0481843
*CONN
*I *9168:A2 I *D gf180mcu_fd_sc_mcu7t5v0__nand2_1
*I *9164:A2 I *D gf180mcu_fd_sc_mcu7t5v0__nand2_1
*I *9160:A2 I *D gf180mcu_fd_sc_mcu7t5v0__nand2_1
*I *9152:A2 I *D gf180mcu_fd_sc_mcu7t5v0__nand2_1
*I *9148:A2 I *D gf180mcu_fd_sc_mcu7t5v0__nand2_1
*I *9156:A2 I *D gf180mcu_fd_sc_mcu7t5v0__nand2_1
*I *9555:Z O *D gf180mcu_fd_sc_mcu7t5v0__clkbuf_4
*CAP
1 *9168:A2 0
2 *9164:A2 5.2376e-05
3 *9160:A2 3.73986e-05
4 *9152:A2 0.000330004
5 *9148:A2 0.000320388
6 *9156:A2 2.3925e-05
7 *9555:Z 0.00014161
8 *425:53 0.000731659
9 *425:42 0.000439904
10 *425:32 0.00172608
11 *425:26 0.0016842
12 *425:18 0.000358255
13 *425:14 0.00348924
14 *425:8 0.00355045
15 *9148:A2 *9148:A1 7.57844e-05
16 *9148:A2 *9156:A1 0
17 *9152:A2 *9152:A1 0.000151426
18 *9156:A2 *9156:A1 0
19 *9160:A2 *9160:A1 2.88786e-05
20 *9164:A2 *9164:A1 0.00013063
21 *425:8 *9172:A2 7.45328e-07
22 *425:8 *9555:I 1.985e-05
23 *425:14 *9168:A1 8.84331e-05
24 *425:26 *442:10 0.00115812
25 *425:32 *9164:A1 0.000401849
26 *425:32 *442:10 0.000288731
27 *9149:A2 *9148:A2 0.00025215
28 *9157:A2 *9152:A2 0
29 *9157:A2 *9156:A2 8.55242e-05
30 *9157:A2 *425:42 0.000127484
31 *9161:A2 *425:42 0.000392377
32 *9162:I0 *9148:A2 0.000183443
33 *9162:I0 *425:42 0.000140663
34 *9162:I0 *425:53 0.000154891
35 *9166:I0 *425:32 0.00377145
36 *9169:A2 *425:14 0.000177896
37 *9169:A2 *425:18 1.3758e-05
38 *9170:I0 *425:26 0.00259041
39 *9173:A2 *425:8 8.0352e-06
40 *9173:A2 *425:14 0.000131617
41 *216:10 *425:42 0.000788606
42 *217:14 *425:26 0.000561965
43 *218:10 *425:26 0.00196237
44 *379:50 *425:14 0.00148367
45 *379:52 *425:14 0.0182749
46 *379:73 *425:32 0.000548375
47 *379:73 *425:42 7.23007e-05
48 *409:10 *425:32 0.00021982
49 *409:12 *9148:A2 0.000257029
50 *409:12 *425:32 0.000211545
51 *409:12 *425:42 0.000323097
52 *409:12 *425:53 0.000221076
53 *413:28 *425:14 0
*RES
1 *9555:Z *425:8 9.836 
2 *425:8 *425:14 48.26 
3 *425:14 *425:18 4.88 
4 *425:18 *425:26 20.4 
5 *425:26 *425:32 22.892 
6 *425:32 *425:42 9.212 
7 *425:42 *9156:A2 4.728 
8 *425:42 *425:53 5.64 
9 *425:53 *9148:A2 12.648 
10 *425:53 *9152:A2 10.976 
11 *425:32 *9160:A2 9.228 
12 *425:26 *9164:A2 4.88 
13 *425:18 *9168:A2 4.5 
*END

*D_NET *426 0.037049
*CONN
*I *9555:I I *D gf180mcu_fd_sc_mcu7t5v0__clkbuf_4
*I *9172:A2 I *D gf180mcu_fd_sc_mcu7t5v0__nand2_1
*I *9176:A2 I *D gf180mcu_fd_sc_mcu7t5v0__nand2_1
*I *9556:Z O *D gf180mcu_fd_sc_mcu7t5v0__buf_4
*CAP
1 *9555:I 0.000159045
2 *9172:A2 0.000328463
3 *9176:A2 0
4 *9556:Z 0.000376753
5 *426:29 0.00126935
6 *426:16 0.00078184
7 *426:14 0.014173
8 *426:12 0.0145498
9 *9172:A2 *9172:A1 0.000386853
10 *426:12 *9233:A1 0.000796969
11 *426:12 *9558:I 3.27928e-05
12 *426:12 *9632:D[7] 0.00150865
13 *9173:A2 *9172:A2 0
14 *9241:B2 *426:12 1.33951e-05
15 *9582:I *426:12 0
16 *9663:I *426:12 0.000146472
17 *367:33 *426:12 0.000383994
18 *379:46 *426:29 0
19 *379:50 *9172:A2 0
20 *379:50 *426:29 0.00192376
21 *413:14 *426:29 0.000197213
22 *425:8 *9172:A2 7.45328e-07
23 *425:8 *9555:I 1.985e-05
*RES
1 *9556:Z *426:12 18.972 
2 *426:12 *426:14 104.804 
3 *426:14 *426:16 4.5 
4 *426:16 *9176:A2 9 
5 *426:16 *426:29 12.1 
6 *426:29 *9172:A2 15.932 
7 *426:29 *9555:I 5.488 
*END

*D_NET *427 0.0108245
*CONN
*I *9235:A2 I *D gf180mcu_fd_sc_mcu7t5v0__nor2_1
*I *9236:A2 I *D gf180mcu_fd_sc_mcu7t5v0__nor3_1
*I *9481:Z O *D gf180mcu_fd_sc_mcu7t5v0__dlyd_1
*CAP
1 *9235:A2 0.000457451
2 *9236:A2 0.000656044
3 *9481:Z 0
4 *427:4 0.0011135
5 *9235:A2 *9235:A1 0.000130482
6 *9235:A2 *9250:A2 4.15776e-06
7 *9235:A2 *9269:A1 0.000226549
8 *9235:A2 *9282:A1 2.79476e-05
9 *9235:A2 *9282:A2 0.000910835
10 *9235:A2 *438:125 7.57848e-05
11 *9235:A2 *512:94 4.04916e-05
12 *9236:A2 *9134:A1 0.000349398
13 *9236:A2 *530:22 0.000104737
14 tl_o[14] *9236:A2 0.000493324
15 tl_o[4] *9236:A2 0.000134125
16 tl_o[64] *9235:A2 0.000637183
17 *9241:B1 *9236:A2 7.4219e-06
18 *9249:A2 *9235:A2 0.000586675
19 *9250:B *9236:A2 0.00168519
20 *9255:A2 *9235:A2 9.25495e-06
21 *9255:A2 *9236:A2 0.000220769
22 *9262:A2 *9235:A2 2.53398e-06
23 *9262:A2 *9236:A2 5.10312e-05
24 *9263:A1 *9235:A2 0.000505657
25 *9388:A2 *9235:A2 8.04139e-05
26 *9393:S *9235:A2 2.76081e-05
27 *9395:A2 *9236:A2 0.000267795
28 *9450:CLK *9236:A2 1.76898e-05
29 *9544:I *9236:A2 7.24161e-06
30 *9658:I *9236:A2 0.00018973
31 *371:22 *9236:A2 0.00104161
32 *375:94 *9236:A2 0.000126541
33 *380:57 *9236:A2 0.000635364
*RES
1 *9481:Z *427:4 4.5 
2 *427:4 *9236:A2 24.444 
3 *427:4 *9235:A2 19.96 
*END

*D_NET *428 0.013652
*CONN
*I *9557:I I *D gf180mcu_fd_sc_mcu7t5v0__buf_4
*I *9642:I I *D gf180mcu_fd_sc_mcu7t5v0__buf_4
*I *9359:A2 I *D gf180mcu_fd_sc_mcu7t5v0__nand2_1
*I *9351:A2 I *D gf180mcu_fd_sc_mcu7t5v0__nand2_1
*I *9355:A2 I *D gf180mcu_fd_sc_mcu7t5v0__nand2_1
*I *9347:A2 I *D gf180mcu_fd_sc_mcu7t5v0__nand2_1
*I *9471:Z O *D gf180mcu_fd_sc_mcu7t5v0__dlyd_1
*CAP
1 *9557:I 0
2 *9642:I 0.00245289
3 *9359:A2 0
4 *9351:A2 0.000128725
5 *9355:A2 6.63912e-05
6 *9347:A2 0.000630513
7 *9471:Z 0.000306774
8 *428:53 0.00267181
9 *428:27 0.000378604
10 *428:12 0.000987376
11 *428:10 0.0003923
12 *428:8 0.000306774
13 *9347:A2 *9185:A1 0.000632894
14 *9347:A2 *431:12 9.75485e-05
15 *9347:A2 *448:49 1.50832e-06
16 *9351:A2 *9351:A1 2.6126e-05
17 *9642:I *470:14 0.0018424
18 *428:8 *9351:A1 7.71175e-06
19 *428:8 *431:12 6.12935e-05
20 *428:8 *470:14 0.000213001
21 *428:12 *431:12 1.24299e-05
22 *428:27 *9351:A1 0.000171927
23 *428:53 *470:14 0.000258251
24 *9352:A1 *9347:A2 3.6222e-05
25 *9352:A2 *9355:A2 7.02696e-05
26 *9353:I0 *9355:A2 0
27 *9356:A1 *9347:A2 0.000348023
28 *9356:A2 *9355:A2 1.02578e-05
29 *9356:A2 *428:27 6.25174e-05
30 *9360:A1 *428:8 0
31 *9360:A2 *428:53 0.000412903
32 *9411:CLK *9347:A2 0
33 *9411:CLK *9351:A2 1.23313e-05
34 *9411:CLK *9355:A2 9.50271e-05
35 *9411:CLK *428:27 0.000310356
36 *205:12 *9347:A2 4.65519e-05
37 *207:12 *9347:A2 0.000600289
38 *208:10 *9351:A2 0
*RES
1 *9471:Z *428:8 6.628 
2 *428:8 *428:10 4.5 
3 *428:10 *428:12 1.14 
4 *428:12 *9347:A2 15.46 
5 *428:12 *428:27 10.9 
6 *428:27 *9355:A2 9.608 
7 *428:27 *9351:A2 9.76 
8 *428:10 *428:53 2.736 
9 *428:53 *9359:A2 9 
10 *428:53 *9642:I 32.94 
11 *428:8 *9557:I 4.5 
*END

*D_NET *429 0.0211207
*CONN
*I *9205:A2 I *D gf180mcu_fd_sc_mcu7t5v0__nand2_1
*I *9209:A2 I *D gf180mcu_fd_sc_mcu7t5v0__nand2_1
*I *9201:A2 I *D gf180mcu_fd_sc_mcu7t5v0__nand2_1
*I *9197:A2 I *D gf180mcu_fd_sc_mcu7t5v0__nand2_1
*I *9189:A2 I *D gf180mcu_fd_sc_mcu7t5v0__nand2_1
*I *9193:A2 I *D gf180mcu_fd_sc_mcu7t5v0__nand2_1
*I *9641:Z O *D gf180mcu_fd_sc_mcu7t5v0__buf_4
*CAP
1 *9205:A2 0
2 *9209:A2 0.000331138
3 *9201:A2 3.17965e-05
4 *9197:A2 0
5 *9189:A2 0.000631071
6 *9193:A2 0
7 *9641:Z 0.000393302
8 *429:68 0.000473109
9 *429:53 0.000877071
10 *429:40 0.00329814
11 *429:14 0.00112598
12 *429:6 0.00348305
13 *9189:A2 *9189:A1 0.000222333
14 *9189:A2 *9193:A1 8.70461e-05
15 *9209:A2 *9205:A1 2.6126e-05
16 *429:6 *9191:I1 8.04285e-05
17 *429:68 *9205:A1 0.00013063
18 *9191:I0 *9189:A2 0.00292751
19 *9191:I0 *429:14 0.00170403
20 *9194:A1 *9189:A2 0
21 *9195:I0 *429:14 0.00026732
22 *9199:I0 *9209:A2 0.000444436
23 *9202:A2 *9201:A2 1.3758e-05
24 *9202:A2 *429:53 9.935e-05
25 *9202:A2 *429:68 1.49066e-06
26 *9210:A2 *9209:A2 0.000161832
27 *9429:CLK *9209:A2 6.07421e-05
28 *9429:CLK *429:68 0.000145096
29 *9430:D *429:68 3.02683e-05
30 *9430:CLK *9201:A2 2.22758e-05
31 *9430:CLK *429:53 9.75898e-05
32 *9431:CLK *9209:A2 3.73535e-05
33 *9431:CLK *429:68 1.97747e-05
34 *9550:I *429:6 0.000189264
35 *9550:I *429:40 5.77094e-05
36 *223:12 *9189:A2 8.12704e-05
37 *226:12 *9209:A2 1.97747e-05
38 *381:118 *9189:A2 8.75318e-05
39 *381:127 *9189:A2 0.00245913
40 *381:136 *429:14 0.000110668
41 *381:136 *429:40 0
42 *381:136 *429:53 0
43 *381:145 *429:53 0
44 *381:156 *429:53 0
45 *381:156 *429:68 0.000453575
46 *415:23 *9209:A2 0.000437703
*RES
1 *9641:Z *429:6 7.008 
2 *429:6 *429:14 14.7 
3 *429:14 *9193:A2 4.5 
4 *429:14 *9189:A2 24.292 
5 *429:6 *429:40 22.74 
6 *429:40 *9197:A2 9 
7 *429:40 *429:53 9.516 
8 *429:53 *9201:A2 4.728 
9 *429:53 *429:68 10.824 
10 *429:68 *9209:A2 16.768 
11 *429:68 *9205:A2 4.5 
*END

*D_NET *430 0.0695952
*CONN
*I *9143:A2 I *D gf180mcu_fd_sc_mcu7t5v0__nand2_1
*I *9367:A2 I *D gf180mcu_fd_sc_mcu7t5v0__nand2_1
*I *9371:A2 I *D gf180mcu_fd_sc_mcu7t5v0__nand2_1
*I *9363:A2 I *D gf180mcu_fd_sc_mcu7t5v0__nand2_1
*I *9641:I I *D gf180mcu_fd_sc_mcu7t5v0__buf_4
*I *9642:Z O *D gf180mcu_fd_sc_mcu7t5v0__buf_4
*CAP
1 *9143:A2 0.000121343
2 *9367:A2 0
3 *9371:A2 2.39161e-05
4 *9363:A2 2.39161e-05
5 *9641:I 0.000247579
6 *9642:Z 0.00248679
7 *430:49 0.00039992
8 *430:36 0.000729097
9 *430:14 0.00737079
10 *430:12 0.00712321
11 *430:10 0.00293731
12 *9363:A2 *9363:A1 8.55327e-05
13 *9371:A2 *9371:A1 8.55327e-05
14 *430:10 *462:14 0
15 *430:36 *462:14 0.000156268
16 *9145:I0 *9143:A2 0.000106694
17 *9145:I0 *430:49 1.72953e-05
18 *9364:A1 *430:36 0
19 *9364:A1 *430:49 0
20 *9365:I0 *430:10 0.000282411
21 *9369:I0 *430:10 0.00140543
22 *9369:I0 *430:36 0.000728903
23 *9372:A1 *9143:A2 0.000450829
24 *9372:A1 *430:49 6.9704e-05
25 *210:10 *430:36 0.000210535
26 *210:10 *430:49 0.000327066
27 *212:12 *9143:A2 0.000359953
28 *417:12 *430:14 0.0438451
*RES
1 *9642:Z *430:10 29.064 
2 *430:10 *430:12 4.5 
3 *430:12 *430:14 104.5 
4 *430:14 *9641:I 15.248 
5 *430:10 *9363:A2 9.228 
6 *430:10 *430:36 5.092 
7 *430:36 *9371:A2 9.228 
8 *430:36 *430:49 2.28 
9 *430:49 *9367:A2 9 
10 *430:49 *9143:A2 12.116 
*END

*D_NET *431 0.0480544
*CONN
*I *9185:A2 I *D gf180mcu_fd_sc_mcu7t5v0__nand2_1
*I *9181:A2 I *D gf180mcu_fd_sc_mcu7t5v0__nand2_1
*I *9557:Z O *D gf180mcu_fd_sc_mcu7t5v0__buf_4
*CAP
1 *9185:A2 0
2 *9181:A2 0.00103726
3 *9557:Z 0.000671762
4 *431:26 0.00263469
5 *431:22 0.00194435
6 *431:12 0.00101868
7 *9181:A2 *9181:A1 0.00011539
8 *9181:A2 *439:37 0.00332012
9 *9181:A2 *559:14 0.000330569
10 *431:26 *9184:A1 5.27998e-05
11 *431:26 *439:18 0.00370463
12 *431:26 *439:35 0.00169501
13 *431:26 *559:14 0.00947376
14 *431:26 *559:24 0.00112023
15 *431:26 *687:20 0.000111443
16 *9186:A2 *431:12 0.000521664
17 *9253:A1 *431:22 0.00050657
18 *9347:A2 *431:12 9.75485e-05
19 *9356:A1 *431:12 0.00017209
20 *9654:I *431:12 0.000123126
21 *9658:I *431:22 0.0107386
22 *9660:I *431:22 0.0050586
23 *281:16 *431:26 0.000968706
24 *381:44 *431:26 1.68417e-05
25 *412:45 *431:26 0.00254624
26 *428:8 *431:12 6.12935e-05
27 *428:12 *431:12 1.24299e-05
*RES
1 *9557:Z *431:12 15.004 
2 *431:12 *431:22 22.8635 
3 *431:22 *431:26 43.8276 
4 *431:26 *9181:A2 29.156 
5 *431:12 *9185:A2 9 
*END

*D_NET *432 0.0112546
*CONN
*I *9559:I I *D gf180mcu_fd_sc_mcu7t5v0__buf_3
*I *9558:I I *D gf180mcu_fd_sc_mcu7t5v0__clkbuf_4
*I *9342:A2 I *D gf180mcu_fd_sc_mcu7t5v0__nand3_1
*I *9472:Z O *D gf180mcu_fd_sc_mcu7t5v0__dlyd_1
*CAP
1 *9559:I 8.37121e-05
2 *9558:I 0.000129246
3 *9342:A2 0.000171208
4 *9472:Z 0
5 *432:17 0.000401876
6 *432:6 0.000360126
7 *9342:A2 *9342:A1 0.000118388
8 *9342:A2 *463:12 0.000334883
9 *432:17 *9342:A1 0.000369159
10 *9470:I *9559:I 0.000335667
11 *9470:I *432:17 0.00149692
12 *9577:I *9342:A2 0.0016702
13 *9577:I *9559:I 0.000317618
14 *9577:I *432:17 0.00272075
15 *9655:I *9342:A2 0.000117838
16 *9655:I *432:17 0.000309344
17 *9661:I *9342:A2 0.00228027
18 *422:85 *9559:I 4.58601e-06
19 *426:12 *9558:I 3.27928e-05
*RES
1 *9472:Z *432:6 9 
2 *432:6 *9342:A2 15.764 
3 *432:6 *432:17 6.916 
4 *432:17 *9558:I 9.836 
5 *432:17 *9559:I 10.368 
*END

*D_NET *433 0.0566294
*CONN
*I *9338:A2 I *D gf180mcu_fd_sc_mcu7t5v0__nand3_1
*I *9334:A2 I *D gf180mcu_fd_sc_mcu7t5v0__nand3_1
*I *9330:A2 I *D gf180mcu_fd_sc_mcu7t5v0__nand3_1
*I *9326:A2 I *D gf180mcu_fd_sc_mcu7t5v0__nand3_1
*I *9322:A2 I *D gf180mcu_fd_sc_mcu7t5v0__nand3_1
*I *9314:A2 I *D gf180mcu_fd_sc_mcu7t5v0__nand3_1
*I *9318:A2 I *D gf180mcu_fd_sc_mcu7t5v0__nand3_1
*I *9558:Z O *D gf180mcu_fd_sc_mcu7t5v0__clkbuf_4
*CAP
1 *9338:A2 0
2 *9334:A2 0
3 *9330:A2 5.83355e-05
4 *9326:A2 0
5 *9322:A2 0
6 *9314:A2 0.000113166
7 *9318:A2 0
8 *9558:Z 0.000314321
9 *433:24 0.000166422
10 *433:20 0.000277597
11 *433:18 0.00268267
12 *433:16 0.00272823
13 *433:12 0.00025446
14 *433:10 0.000357212
15 *9314:A2 *9318:A1 5.15348e-05
16 *9314:A2 *9322:A1 0.00146789
17 *9330:A2 *9330:A1 7.3102e-05
18 *433:10 *9342:A1 0.000609221
19 *433:10 *9394:A1 0.00195246
20 *433:10 *9632:A[4] 0.00146539
21 *433:10 *604:23 0.00206219
22 *433:12 *9632:A[4] 9.0262e-05
23 *433:18 *9632:A[2] 0.00104024
24 *433:18 *9632:A[0] 0
25 *9238:A2 *433:10 0.00152106
26 *9314:A3 *9314:A2 0.00135257
27 *9314:A3 *433:24 0.000142809
28 *9320:A1 *9314:A2 0.00013063
29 *9320:A1 *433:20 0.000743225
30 *9320:A1 *433:24 9.90639e-05
31 *9330:A3 *9330:A2 7.3102e-05
32 *9447:D *433:10 0.000948059
33 *9652:I *433:10 0.000444017
34 *9653:I *433:10 0.00113057
35 *9661:I *433:10 7.0472e-05
36 *9661:I *433:12 4.32383e-05
37 *9661:I *433:16 0.0013796
38 *9661:I *433:18 0.00294075
39 *9663:I *433:10 0.000161924
40 *9663:I *433:16 0.000224455
41 *9663:I *433:18 0.000606282
42 *332:29 *433:10 0.00017483
43 *332:29 *433:12 0.000151957
44 *332:35 *433:12 0.000135941
45 *332:43 *433:12 0.000215472
46 *332:43 *433:16 0.00172249
47 *332:45 *433:16 0.000145096
48 *332:45 *433:18 0.0227875
49 *332:47 *433:18 0.00014967
50 *332:47 *433:20 0.00290261
51 *332:49 *433:20 0.00014967
52 *332:49 *433:24 0.000317618
*RES
1 *9558:Z *433:10 23.288 
2 *433:10 *433:12 1.14 
3 *433:12 *433:16 7.752 
4 *433:16 *433:18 55.252 
5 *433:18 *433:20 7.372 
6 *433:20 *433:24 5.64 
7 *433:24 *9318:A2 4.5 
8 *433:24 *9314:A2 17.604 
9 *433:20 *9322:A2 9 
10 *433:18 *9326:A2 9 
11 *433:16 *9330:A2 9.532 
12 *433:12 *9334:A2 9 
13 *433:10 *9338:A2 9 
*END

*D_NET *434 0.0619072
*CONN
*I *9167:A2 I *D gf180mcu_fd_sc_mcu7t5v0__nand3_1
*I *9163:A2 I *D gf180mcu_fd_sc_mcu7t5v0__nand3_1
*I *9155:A2 I *D gf180mcu_fd_sc_mcu7t5v0__nand3_1
*I *9151:A2 I *D gf180mcu_fd_sc_mcu7t5v0__nand3_1
*I *9147:A2 I *D gf180mcu_fd_sc_mcu7t5v0__nand3_1
*I *9159:A2 I *D gf180mcu_fd_sc_mcu7t5v0__nand3_1
*I *9171:A2 I *D gf180mcu_fd_sc_mcu7t5v0__nand3_1
*I *9643:Z O *D gf180mcu_fd_sc_mcu7t5v0__clkbuf_4
*CAP
1 *9167:A2 0
2 *9163:A2 3.34482e-05
3 *9155:A2 0
4 *9151:A2 0
5 *9147:A2 0.000320835
6 *9159:A2 0
7 *9171:A2 1.81197e-05
8 *9643:Z 0.000131702
9 *434:50 0.000418153
10 *434:46 0.000302399
11 *434:35 0.00172859
12 *434:29 0.00216182
13 *434:25 0.000796712
14 *434:12 0.000341663
15 *9147:A2 *9634:D[1] 0.000160944
16 *9171:A2 *9171:A1 3.91978e-05
17 *434:12 *9643:I 0
18 *434:12 *443:41 0.0018345
19 *434:25 *9171:A1 3.38774e-05
20 *434:25 *443:41 0.000851356
21 *434:46 *9159:A1 3.73535e-05
22 *9147:A3 *9147:A2 0.000306571
23 *9147:A3 *434:50 8.10706e-06
24 *9161:A1 *434:35 7.98466e-05
25 *9161:A1 *434:46 0.000114041
26 *9165:A1 *9163:A2 8.04285e-05
27 *9165:A1 *434:35 0.00721514
28 *261:24 *434:12 0.000902625
29 *261:35 *9171:A2 3.26422e-05
30 *261:35 *434:25 0.0102255
31 *261:35 *434:29 0.000127047
32 *261:39 *434:29 0.00485771
33 *261:39 *434:35 6.38541e-05
34 *261:41 *434:35 0.0142807
35 *261:41 *434:46 5.59457e-05
36 *261:43 *434:46 0.00109393
37 *261:58 *434:46 0.00018371
38 *261:58 *434:50 0.00071453
39 *330:35 *434:25 0.00816924
40 *330:35 *434:29 0.00218204
41 *330:46 *9147:A2 0.000209931
42 *330:46 *434:46 0.0012528
43 *330:46 *434:50 0.000421411
44 *413:18 *434:12 4.4998e-05
45 *413:26 *434:25 7.37658e-05
46 *413:28 *434:25 0
47 *413:28 *434:29 0
48 *413:28 *434:35 0
*RES
1 *9643:Z *434:12 18.668 
2 *434:12 *9171:A2 4.728 
3 *434:12 *434:25 29.428 
4 *434:25 *434:29 12.464 
5 *434:29 *434:35 41.132 
6 *434:35 *9159:A2 4.5 
7 *434:35 *434:46 11.34 
8 *434:46 *434:50 2.432 
9 *434:50 *9147:A2 12.8 
10 *434:50 *9151:A2 9 
11 *434:46 *9155:A2 9 
12 *434:29 *9163:A2 9.228 
13 *434:25 *9167:A2 9 
*END

*D_NET *435 0.0381833
*CONN
*I *9175:A2 I *D gf180mcu_fd_sc_mcu7t5v0__nand3_1
*I *9643:I I *D gf180mcu_fd_sc_mcu7t5v0__clkbuf_4
*I *9559:Z O *D gf180mcu_fd_sc_mcu7t5v0__buf_3
*CAP
1 *9175:A2 0
2 *9643:I 0.000296488
3 *9559:Z 0.000638712
4 *435:14 0.0010234
5 *435:10 0.0153679
6 *435:8 0.0152797
7 *9643:I *443:22 5.41397e-05
8 *9643:I *443:41 0.000620935
9 *9643:I *557:10 0.000128873
10 *435:8 *9213:A1 0.000207816
11 *435:8 *9646:I 0
12 *435:10 *9646:I 0.00295425
13 *9300:A2 *435:14 0.000433305
14 *261:18 *9643:I 0
15 *261:18 *435:14 0
16 *330:10 *9643:I 0.00062633
17 *330:10 *435:14 0.000551476
18 *434:12 *9643:I 0
*RES
1 *9559:Z *435:8 8.376 
2 *435:8 *435:10 105.336 
3 *435:10 *435:14 12.328 
4 *435:14 *9643:I 12.952 
5 *435:14 *9175:A2 9 
*END

*D_NET *436 0.00397551
*CONN
*I *9561:I I *D gf180mcu_fd_sc_mcu7t5v0__buf_3
*I *9560:I I *D gf180mcu_fd_sc_mcu7t5v0__clkbuf_4
*I *9346:A2 I *D gf180mcu_fd_sc_mcu7t5v0__nand3_1
*I *9473:Z O *D gf180mcu_fd_sc_mcu7t5v0__dlyd_1
*CAP
1 *9561:I 0.00012781
2 *9560:I 0
3 *9346:A2 5.87386e-06
4 *9473:Z 0
5 *436:10 0.0002384
6 *436:4 0.000360336
7 *9346:A2 *439:16 0.000143098
8 *436:10 *440:10 0
9 *9348:A1 *436:10 0
10 *9654:I *436:10 0.000120837
11 *258:20 *9346:A2 0.000158809
12 *258:29 *9346:A2 0.00107076
13 *258:29 *436:10 0.000411079
14 *371:22 *9346:A2 0.00122957
15 *371:22 *436:10 0.000108934
*RES
1 *9473:Z *436:4 4.5 
2 *436:4 *436:10 6.476 
3 *436:10 *9346:A2 11.964 
4 *436:10 *9560:I 9 
5 *436:4 *9561:I 5.26 
*END

*D_NET *437 0.0488144
*CONN
*I *9208:A2 I *D gf180mcu_fd_sc_mcu7t5v0__nand3_1
*I *9204:A2 I *D gf180mcu_fd_sc_mcu7t5v0__nand3_1
*I *9200:A2 I *D gf180mcu_fd_sc_mcu7t5v0__nand3_1
*I *9196:A2 I *D gf180mcu_fd_sc_mcu7t5v0__nand3_1
*I *9192:A2 I *D gf180mcu_fd_sc_mcu7t5v0__nand3_1
*I *9188:A2 I *D gf180mcu_fd_sc_mcu7t5v0__nand3_1
*I *9644:Z O *D gf180mcu_fd_sc_mcu7t5v0__clkbuf_4
*CAP
1 *9208:A2 0.000145831
2 *9204:A2 7.60826e-05
3 *9200:A2 0
4 *9196:A2 9.1138e-05
5 *9192:A2 0
6 *9188:A2 0
7 *9644:Z 0.00234536
8 *437:52 0.000381466
9 *437:41 0.000626116
10 *437:30 0.00191258
11 *437:21 0.00141586
12 *437:12 0.00240634
13 *437:12 *9188:A1 0.00637727
14 *437:12 *9192:A1 4.78829e-05
15 *437:21 *9192:A1 0.00506194
16 *437:52 *9200:A1 0.000462869
17 *9196:A3 *9196:A2 5.03217e-05
18 *9204:A3 *9204:A2 5.48978e-05
19 *9206:A1 *9204:A2 3.23347e-05
20 *9208:A3 *9204:A2 2.49331e-05
21 *9208:A3 *9208:A2 0.000587446
22 *9208:A3 *437:52 0.000145267
23 *9210:A1 *9208:A2 3.22131e-05
24 *278:43 *437:21 8.75318e-05
25 *278:52 *437:21 0.00499842
26 *278:52 *437:30 0.000190571
27 *278:65 *9196:A2 6.15455e-05
28 *278:65 *437:30 0.0160958
29 *278:65 *437:41 0.000120187
30 *278:69 *437:41 0.00114131
31 *278:84 *437:41 9.33883e-05
32 *278:84 *437:52 6.38438e-05
33 *331:52 *9208:A2 0.000341755
34 *331:52 *437:21 2.62889e-05
35 *331:52 *437:30 0.00327925
36 *331:52 *437:41 1.94858e-05
37 *331:52 *437:52 1.6848e-05
*RES
1 *9644:Z *437:12 32.18 
2 *437:12 *9188:A2 9 
3 *437:12 *437:21 12.54 
4 *437:21 *9192:A2 9 
5 *437:21 *437:30 39.292 
6 *437:30 *9196:A2 9.684 
7 *437:30 *437:41 6.308 
8 *437:41 *9200:A2 9 
9 *437:41 *437:52 1.976 
10 *437:52 *9204:A2 9.532 
11 *437:52 *9208:A2 12.42 
*END

*D_NET *438 0.0866837
*CONN
*I *9250:A1 I *D gf180mcu_fd_sc_mcu7t5v0__oai31_1
*I *9282:A1 I *D gf180mcu_fd_sc_mcu7t5v0__nor3_2
*I *9235:A1 I *D gf180mcu_fd_sc_mcu7t5v0__nor2_1
*I *9237:A2 I *D gf180mcu_fd_sc_mcu7t5v0__nor3_1
*I *9302:A1 I *D gf180mcu_fd_sc_mcu7t5v0__nor3_4
*I *9292:A1 I *D gf180mcu_fd_sc_mcu7t5v0__nor3_4
*I *9236:A1 I *D gf180mcu_fd_sc_mcu7t5v0__nor3_1
*I *9272:A1 I *D gf180mcu_fd_sc_mcu7t5v0__nor3_2
*I *9482:Z O *D gf180mcu_fd_sc_mcu7t5v0__clkbuf_2
*CAP
1 *9250:A1 0
2 *9282:A1 0.000752005
3 *9235:A1 0.000382879
4 *9237:A2 3.67755e-05
5 *9302:A1 9.30515e-05
6 *9292:A1 0.00252254
7 *9236:A1 0
8 *9272:A1 6.4445e-05
9 *9482:Z 0.00170698
10 *438:125 0.00131014
11 *438:119 0.0003444
12 *438:82 0.0056051
13 *438:76 0.0090028
14 *438:72 0.0076734
15 *438:56 0.00301378
16 *438:33 0.00201805
17 *438:29 0.00190095
18 *438:12 0.00280209
19 *9237:A2 *648:34 0
20 *9282:A1 *9221:A1 0.000392982
21 *9282:A1 *9252:A1 1.26386e-05
22 *9282:A1 *9254:A1 0.000337608
23 *9282:A1 *9282:A2 0.00145751
24 *9282:A1 *9346:A1 0
25 *9282:A1 *9389:I1 0.000550737
26 *9292:A1 *9292:A2 0
27 *9292:A1 *453:14 0
28 *9302:A1 *9302:A2 0.000508189
29 *438:12 *9217:A2 3.26676e-05
30 *438:12 *9218:A1 2.96621e-05
31 *438:12 *9218:A2 8.93456e-05
32 *438:12 *9271:A1 3.34412e-05
33 *438:12 *9271:A2 0.000606165
34 *438:12 *9280:A1 0.000315892
35 *438:12 *9339:A1 0
36 *438:12 *449:16 0
37 *438:12 *460:22 1.04779e-05
38 *438:12 *460:30 3.50109e-05
39 *438:12 *607:10 0
40 *438:29 *9271:A2 0.0013771
41 *438:29 *449:32 0.000238012
42 *438:29 *511:23 0.000723736
43 *438:29 *511:31 9.81173e-05
44 *438:29 *512:32 0.00126467
45 *438:33 *449:38 0.000354758
46 *438:56 *9131:A1 3.07734e-05
47 *438:56 *9231:A2 0.00011262
48 *438:56 *449:38 1.17066e-05
49 *438:56 *449:59 2.42928e-05
50 *438:56 *593:12 4.42356e-05
51 *438:56 *648:34 0.00100237
52 *438:72 *9451:D 2.97523e-05
53 *438:72 *449:59 0
54 *438:72 *449:82 0
55 *438:72 *514:69 1.70717e-05
56 *438:72 *593:12 6.53491e-05
57 *438:72 *648:34 0.000374776
58 *438:76 *449:84 0.00153288
59 *438:76 *652:10 0
60 *438:82 *9292:A2 9.30957e-05
61 *438:82 *9302:A2 8.84331e-05
62 *438:82 *449:84 0.0149291
63 *438:119 *449:32 0.00013858
64 *438:119 *449:116 0.00019621
65 *438:119 *449:129 0.00171403
66 *438:119 *506:20 0.0002327
67 *438:125 *9282:A2 6.18153e-06
68 *438:125 *512:26 0.000654445
69 *438:125 *512:94 0.000225767
70 tl_o[14] *438:33 0.000144964
71 tl_o[24] *9282:A1 0.000151957
72 tl_o[50] *9235:A1 0.000216865
73 tl_o[50] *9282:A1 4.04886e-05
74 tl_o[60] *438:12 8.17271e-05
75 tl_o[64] *9235:A1 1.44832e-05
76 *9235:A2 *9235:A1 0.000130482
77 *9235:A2 *9282:A1 2.79476e-05
78 *9235:A2 *438:125 7.57848e-05
79 *9237:A1 *438:56 8.55327e-05
80 *9239:B2 *438:29 0.000478648
81 *9249:A2 *9235:A1 0.000251817
82 *9250:B *438:119 6.58922e-05
83 *9262:B *438:119 2.05156e-05
84 *9268:I1 *438:72 0
85 *9282:A3 *9282:A1 0.0001321
86 *9292:A3 *9292:A1 0.00155391
87 *9340:A1 *438:12 0.000297452
88 *9341:I0 *438:12 0.000128615
89 *9344:A2 *438:12 0.000790684
90 *9388:A1 *438:119 4.9253e-05
91 *9388:A2 *9282:A1 7.2853e-05
92 *9388:A2 *438:125 7.2647e-05
93 *9399:D *438:76 6.77492e-05
94 *9399:CLK *438:76 0.00147279
95 *9406:D *438:12 5.83634e-05
96 *9473:I *438:125 0.00153058
97 *9574:I *438:12 0
98 *9655:I *438:33 1.67127e-05
99 *9657:I *438:29 0.000512246
100 *9665:I *438:33 2.31157e-05
101 *9666:I *9282:A1 0.000161578
102 *9666:I *438:119 0.000148925
103 *203:12 *438:12 0.000654765
104 *248:29 *438:29 2.57542e-05
105 *248:29 *438:119 0.00197464
106 *249:12 *438:56 5.76749e-06
107 *299:12 *438:56 8.95196e-05
108 *299:16 *438:72 7.71175e-06
109 *327:17 *438:72 1.15966e-05
110 *329:12 *9282:A1 0.000212063
111 *370:14 *438:33 0.000637756
112 *371:8 *9272:A1 0.000196843
113 *374:6 *438:82 4.07634e-05
114 *374:11 *438:82 0.00105673
115 *375:6 *438:76 0
116 *375:15 *438:76 0
117 *375:19 *438:76 0
118 *375:21 *438:76 0
119 *375:30 *438:76 0
120 *375:74 *438:12 0.000206597
121 *375:74 *438:29 0.00270285
122 *375:94 *9282:A1 0.000618077
123 *380:207 *438:56 5.87561e-06
124 *402:26 *9272:A1 0
125 *402:26 *438:29 7.8324e-05
126 *424:19 *438:12 5.89191e-05
*RES
1 *9482:Z *438:12 23.972 
2 *438:12 *9272:A1 9.532 
3 *438:12 *438:29 18.696 
4 *438:29 *438:33 9.288 
5 *438:33 *9236:A1 13.5 
6 *438:33 *438:56 18.5 
7 *438:56 *438:72 25.752 
8 *438:72 *438:76 43.244 
9 *438:76 *438:82 43.184 
10 *438:82 *9292:A1 38.216 
11 *438:82 *9302:A1 10.292 
12 *438:56 *9237:A2 4.728 
13 *438:29 *438:119 10.58 
14 *438:119 *438:125 13.028 
15 *438:125 *9235:A1 7.768 
16 *438:125 *9282:A1 23.304 
17 *438:119 *9250:A1 4.5 
*END

*D_NET *439 0.0705526
*CONN
*I *9180:A2 I *D gf180mcu_fd_sc_mcu7t5v0__nand3_1
*I *9644:I I *D gf180mcu_fd_sc_mcu7t5v0__clkbuf_4
*I *9184:A2 I *D gf180mcu_fd_sc_mcu7t5v0__nand3_1
*I *9560:Z O *D gf180mcu_fd_sc_mcu7t5v0__clkbuf_4
*CAP
1 *9180:A2 4.95104e-05
2 *9644:I 0.00275516
3 *9184:A2 0
4 *9560:Z 0.000890565
5 *439:37 0.00886946
6 *439:35 0.00782477
7 *439:18 0.00484903
8 *439:16 0.00397962
9 *439:16 *9346:A1 0.000297268
10 *439:18 *9377:I0 0.000123391
11 *439:18 *460:160 0.000245594
12 *439:18 *651:6 0.000152858
13 *439:18 *687:20 6.13125e-05
14 *439:35 *9183:I1 0.000294104
15 *439:35 *9184:A1 3.09482e-05
16 *9181:A2 *439:37 0.00332012
17 *9182:A1 *439:37 0.00108917
18 *9346:A2 *439:16 0.000143098
19 *9652:I *439:16 0.00198004
20 *9660:I *439:16 0.0100486
21 *9664:I *439:16 0.000114039
22 *192:10 *439:35 0.000287657
23 *192:10 *439:37 0.00115763
24 *221:14 *439:37 0.000145491
25 *258:20 *439:16 0.000627017
26 *258:29 *439:16 0.000108517
27 *278:23 *439:35 0.00075875
28 *278:25 *439:37 0.00128224
29 *278:37 *9644:I 0.0111161
30 *370:53 *439:16 0.000531604
31 *377:16 *439:37 0
32 *380:35 *439:16 0.000576593
33 *381:44 *439:35 7.6709e-05
34 *412:45 *439:18 0.000372907
35 *414:10 *439:35 0.000993076
36 *431:26 *439:18 0.00370463
37 *431:26 *439:35 0.00169501
*RES
1 *9560:Z *439:16 31.048 
2 *439:16 *439:18 26.3747 
3 *439:18 *9184:A2 13.5 
4 *439:18 *439:35 17.1 
5 *439:35 *439:37 48.6481 
6 *439:37 *9644:I 41.5095 
7 *439:37 *9180:A2 13.7199 
*END

*D_NET *440 0.0432459
*CONN
*I *9370:A2 I *D gf180mcu_fd_sc_mcu7t5v0__nand3_1
*I *9142:A2 I *D gf180mcu_fd_sc_mcu7t5v0__nand3_1
*I *9366:A2 I *D gf180mcu_fd_sc_mcu7t5v0__nand3_1
*I *9362:A2 I *D gf180mcu_fd_sc_mcu7t5v0__nand3_1
*I *9358:A2 I *D gf180mcu_fd_sc_mcu7t5v0__nand3_1
*I *9354:A2 I *D gf180mcu_fd_sc_mcu7t5v0__nand3_1
*I *9350:A2 I *D gf180mcu_fd_sc_mcu7t5v0__nand3_1
*I *9561:Z O *D gf180mcu_fd_sc_mcu7t5v0__buf_3
*CAP
1 *9370:A2 0
2 *9142:A2 0.000361788
3 *9366:A2 0
4 *9362:A2 0
5 *9358:A2 0
6 *9354:A2 0.00011635
7 *9350:A2 0
8 *9561:Z 0.000210995
9 *440:61 0.000443742
10 *440:52 0.000591293
11 *440:43 0.00310229
12 *440:34 0.00282805
13 *440:21 0.000450611
14 *440:10 0.000310153
15 *9142:A2 *9370:A1 0.00111125
16 *440:10 *9350:A1 2.6126e-05
17 *440:10 *9633:D[2] 2.54485e-05
18 *440:21 *9350:A1 4.38621e-05
19 *440:21 *9633:D[2] 2.28628e-05
20 *440:43 *459:14 0
21 *9142:A3 *9142:A2 4.3054e-05
22 *9142:A3 *440:61 0.000117908
23 *9144:A1 *9142:A2 7.3227e-05
24 *9186:A1 *440:21 0.000487374
25 *9186:A1 *440:34 0.00019504
26 *9352:A1 *440:10 0.000249609
27 *9354:A3 *9354:A2 0.000120078
28 *9471:I *9354:A2 7.46669e-05
29 *9656:I *440:43 0.0033015
30 *9660:I *440:34 0.000222507
31 *222:6 *9354:A2 0.000646013
32 *258:53 *440:34 0.00133009
33 *258:62 *440:34 4.3054e-05
34 *258:62 *440:43 0.0210959
35 *258:71 *440:43 0.000127047
36 *258:71 *440:52 0.00280852
37 *258:80 *440:52 0.000117908
38 *258:80 *440:61 0.00034938
39 *370:53 *440:21 0.000228415
40 *370:53 *440:34 0.00160987
41 *370:53 *440:43 0.000359984
42 *436:10 *440:10 0
*RES
1 *9561:Z *440:10 6.096 
2 *440:10 *9350:A2 4.5 
3 *440:10 *440:21 6.172 
4 *440:21 *9354:A2 10.748 
5 *440:21 *440:34 8.208 
6 *440:34 *9358:A2 9 
7 *440:34 *440:43 51.148 
8 *440:43 *9362:A2 9 
9 *440:43 *440:52 7.068 
10 *440:52 *9366:A2 9 
11 *440:52 *440:61 1.14 
12 *440:61 *9142:A2 12.572 
13 *440:61 *9370:A2 9 
*END

*D_NET *441 0.0216783
*CONN
*I *9646:I I *D gf180mcu_fd_sc_mcu7t5v0__buf_4
*I *9345:I1 I *D gf180mcu_fd_sc_mcu7t5v0__mux2_2
*I *9562:I I *D gf180mcu_fd_sc_mcu7t5v0__buf_4
*I *9337:I1 I *D gf180mcu_fd_sc_mcu7t5v0__mux2_2
*I *9474:Z O *D gf180mcu_fd_sc_mcu7t5v0__dlyd_1
*CAP
1 *9646:I 0.00292663
2 *9345:I1 0.000150872
3 *9562:I 0.000108459
4 *9337:I1 0.000325483
5 *9474:Z 0
6 *441:34 0.00368688
7 *441:14 0.0008788
8 *441:6 0.00105424
9 *9337:I1 *444:6 4.1938e-05
10 *9337:I1 *444:18 3.65277e-05
11 *9562:I *444:6 3.95687e-05
12 *9646:I *9374:I1 0
13 *9646:I *443:16 0.000321275
14 *441:14 *9592:I 0.00167825
15 *441:34 *9592:I 0.00104765
16 tl_o[0] *9345:I1 0.00013242
17 tl_o[0] *441:34 2.78502e-05
18 *9130:I *441:34 0.000310691
19 *9395:A2 *9646:I 0.000602708
20 *9435:D *9337:I1 5.4481e-05
21 *9537:I *9345:I1 0.000826327
22 *9537:I *9646:I 0.00195833
23 *9549:I *9562:I 2.33409e-05
24 *295:12 *441:14 0.000712843
25 *295:12 *441:34 0.000178346
26 *378:108 *9337:I1 0.000192438
27 *378:108 *9562:I 0.000143734
28 *378:110 *9337:I1 0.000434497
29 *378:182 *9646:I 0
30 *408:25 *9345:I1 5.47939e-05
31 *408:25 *9646:I 0.00077469
32 *408:51 *441:34 0
33 *408:60 *9337:I1 0
34 *435:8 *9646:I 0
35 *435:10 *9646:I 0.00295425
*RES
1 *9474:Z *441:6 9 
2 *441:6 *441:14 10.656 
3 *441:14 *9337:I1 7.54 
4 *441:14 *9562:I 5.488 
5 *441:6 *441:34 10.808 
6 *441:34 *9345:I1 6.704 
7 *441:34 *9646:I 42.988 
*END

*D_NET *442 0.0323695
*CONN
*I *9166:I1 I *D gf180mcu_fd_sc_mcu7t5v0__mux2_2
*I *9162:I1 I *D gf180mcu_fd_sc_mcu7t5v0__mux2_2
*I *9158:I1 I *D gf180mcu_fd_sc_mcu7t5v0__mux2_2
*I *9154:I1 I *D gf180mcu_fd_sc_mcu7t5v0__mux2_2
*I *9150:I1 I *D gf180mcu_fd_sc_mcu7t5v0__mux2_2
*I *9170:I1 I *D gf180mcu_fd_sc_mcu7t5v0__mux2_2
*I *9645:Z O *D gf180mcu_fd_sc_mcu7t5v0__clkbuf_4
*CAP
1 *9166:I1 0.000121117
2 *9162:I1 0.000367974
3 *9158:I1 0
4 *9154:I1 0
5 *9150:I1 0.000237096
6 *9170:I1 0
7 *9645:Z 0.000736186
8 *442:33 0.000360639
9 *442:27 0.000247471
10 *442:25 0.00124068
11 *442:23 0.00160826
12 *442:12 0.000738366
13 *442:10 0.00485375
14 *442:8 0.00558993
15 *9150:I1 *9605:I 4.58601e-06
16 *9150:I1 *9606:I 0.000832188
17 *9150:I1 *9607:I 0.000105527
18 *442:10 *9164:A1 0.000577125
19 *442:23 *555:8 0.00105486
20 *442:25 *555:8 0.00197303
21 *442:27 *555:8 0.000184283
22 *442:33 *9605:I 4.17249e-05
23 *442:33 *9606:I 0.000186796
24 *442:33 *555:8 8.30371e-05
25 *9149:A2 *442:25 0.000532405
26 *9150:S *9150:I1 0.000300836
27 *9153:A2 *442:25 0
28 *9157:A1 *442:25 1.61066e-05
29 *9157:A2 *442:25 0.000468562
30 *9158:I0 *442:25 0.000521777
31 *9158:I0 *442:27 4.84399e-05
32 *9158:S *9162:I1 0
33 *9161:A1 *442:23 6.04444e-06
34 *9161:A1 *442:25 0.000397355
35 *9162:I0 *9162:I1 0
36 *9166:I0 *442:10 0.000170911
37 *9170:I0 *442:10 0.000265664
38 *9170:S *442:23 1.83267e-05
39 *215:8 *442:25 1.99058e-05
40 *217:14 *442:10 0.00296121
41 *218:10 *442:10 0.000312891
42 *379:52 *442:10 0.00268117
43 *379:73 *442:10 0.00102357
44 *379:73 *442:23 3.28611e-05
45 *409:29 *9162:I1 0
46 *425:26 *442:10 0.00115812
47 *425:32 *442:10 0.000288731
*RES
1 *9645:Z *442:8 12.876 
2 *442:8 *442:10 54.34 
3 *442:10 *442:12 4.5 
4 *442:12 *9170:I1 4.5 
5 *442:12 *442:23 12.708 
6 *442:23 *442:25 14.668 
7 *442:25 *442:27 1.444 
8 *442:27 *442:33 5.716 
9 *442:33 *9150:I1 16.54 
10 *442:33 *9154:I1 4.5 
11 *442:27 *9158:I1 9 
12 *442:25 *9162:I1 10.9 
13 *442:23 *9166:I1 9.532 
*END

*D_NET *443 0.0631929
*CONN
*I *9174:I1 I *D gf180mcu_fd_sc_mcu7t5v0__mux2_2
*I *9645:I I *D gf180mcu_fd_sc_mcu7t5v0__clkbuf_4
*I *9178:I1 I *D gf180mcu_fd_sc_mcu7t5v0__mux2_2
*I *9646:Z O *D gf180mcu_fd_sc_mcu7t5v0__buf_4
*CAP
1 *9174:I1 0
2 *9645:I 1.87032e-05
3 *9178:I1 0.000128121
4 *9646:Z 0.00181645
5 *443:41 0.000603225
6 *443:22 0.000774122
7 *443:18 0.0238342
8 *443:16 0.0255892
9 *9645:I *9167:A1 0.00127449
10 *443:22 *557:10 2.65866e-05
11 *9174:S *443:41 4.47134e-05
12 *9175:A3 *9178:I1 0
13 *9178:I0 *9178:I1 1.15244e-05
14 *9643:I *443:22 5.41397e-05
15 *9643:I *443:41 0.000620935
16 *9646:I *443:16 0.000321275
17 *261:18 *9178:I1 0
18 *261:24 *443:22 5.69717e-05
19 *261:24 *443:41 0.000367176
20 *261:35 *9645:I 0.00331899
21 *261:35 *443:41 5.10924e-05
22 *330:10 *443:41 0.000607499
23 *330:25 *9645:I 0.000780332
24 *413:18 *443:41 0.000172636
25 *413:26 *443:41 3.4631e-05
26 *434:12 *443:41 0.0018345
27 *434:25 *443:41 0.000851356
*RES
1 *9646:Z *443:16 28.3412 
2 *443:16 *443:18 90.0084 
3 *443:18 *443:22 5.032 
4 *443:22 *9178:I1 9.608 
5 *443:22 *443:41 14.76 
6 *443:41 *9645:I 21.48 
7 *443:41 *9174:I1 4.5 
*END

*D_NET *444 0.0269786
*CONN
*I *9333:I1 I *D gf180mcu_fd_sc_mcu7t5v0__mux2_2
*I *9329:I1 I *D gf180mcu_fd_sc_mcu7t5v0__mux2_2
*I *9321:I1 I *D gf180mcu_fd_sc_mcu7t5v0__mux2_2
*I *9325:I1 I *D gf180mcu_fd_sc_mcu7t5v0__mux2_2
*I *9317:I1 I *D gf180mcu_fd_sc_mcu7t5v0__mux2_2
*I *9341:I1 I *D gf180mcu_fd_sc_mcu7t5v0__mux2_2
*I *9562:Z O *D gf180mcu_fd_sc_mcu7t5v0__buf_4
*CAP
1 *9333:I1 0
2 *9329:I1 7.95149e-05
3 *9321:I1 0.000217599
4 *9325:I1 0.0001115
5 *9317:I1 0.000249236
6 *9341:I1 0.000107039
7 *9562:Z 8.92711e-05
8 *444:37 0.000625059
9 *444:35 0.000639121
10 *444:33 0.00486499
11 *444:31 0.00683122
12 *444:18 0.00276044
13 *444:6 0.000539731
14 *9317:I1 *9587:I 0.000318437
15 *9321:I1 *9589:I 0
16 *9341:I1 *9594:I 0.000225963
17 *444:18 *9594:I 2.50715e-05
18 *444:31 *9218:A1 0.000635007
19 *444:31 *9277:A1 0.00187395
20 *444:31 *9280:A1 0.000689383
21 *444:31 *9381:I1 0.000888848
22 *444:33 *9590:I 0.000353025
23 *444:37 *9587:I 0.00022499
24 *444:37 *9589:I 0.000183434
25 tl_o[7] *9329:I1 0
26 *9321:I0 *9321:I1 0
27 *9321:S *9321:I1 0.000136785
28 *9321:S *444:35 3.02712e-05
29 *9321:S *444:37 1.2427e-05
30 *9329:I0 *9321:I1 0.000434724
31 *9337:I0 *444:18 5.59256e-05
32 *9337:I1 *444:6 4.1938e-05
33 *9337:I1 *444:18 3.65277e-05
34 *9341:I0 *444:18 0
35 *9341:S *9341:I1 0.000789447
36 *9341:S *444:18 0.000334109
37 *9435:D *444:18 3.76352e-05
38 *9495:I *444:31 0
39 *9496:I *444:31 0.00015662
40 *9549:I *444:6 0.000255714
41 *9562:I *444:6 3.95687e-05
42 *9574:I *444:18 8.23319e-05
43 *393:14 *444:18 0
44 *393:14 *444:31 6.40199e-05
45 *408:51 *444:18 0.000195096
46 *408:60 *444:6 4.59139e-05
47 *408:60 *444:18 5.61876e-05
48 *411:12 *444:18 0.0002586
49 *411:12 *444:31 0
50 *411:14 *444:33 0.00123893
51 *411:16 *444:33 0.000133535
52 *411:16 *444:35 9.45347e-06
*RES
1 *9562:Z *444:6 5.64 
2 *444:6 *444:18 12.952 
3 *444:18 *9341:I1 6.552 
4 *444:18 *444:31 25.4 
5 *444:31 *444:33 38.608 
6 *444:33 *444:35 1.14 
7 *444:35 *444:37 2.964 
8 *444:37 *9317:I1 11.66 
9 *444:37 *9325:I1 9.532 
10 *444:35 *9321:I1 11.052 
11 *444:33 *9329:I1 9.532 
12 *444:6 *9333:I1 4.5 
*END

*D_NET *445 0.010545
*CONN
*I *9187:I1 I *D gf180mcu_fd_sc_mcu7t5v0__mux2_2
*I *9648:I I *D gf180mcu_fd_sc_mcu7t5v0__buf_4
*I *9563:I I *D gf180mcu_fd_sc_mcu7t5v0__buf_4
*I *9475:Z O *D gf180mcu_fd_sc_mcu7t5v0__dlyd_1
*CAP
1 *9187:I1 0.000282064
2 *9648:I 0.00214903
3 *9563:I 0
4 *9475:Z 0.000659898
5 *445:20 0.00284977
6 *445:14 0.0016427
7 *9187:I1 *9614:I 0.000160139
8 *9187:I1 *9633:D[2] 2.8725e-05
9 *9648:I *9614:I 5.05502e-05
10 *445:14 *9283:A1 0.000210358
11 *445:14 *9347:A1 0.000152738
12 *445:14 *9390:I0 0.000439851
13 *445:14 *472:10 0.000224798
14 *445:20 *9614:I 0.000170936
15 *445:20 *448:20 2.07322e-05
16 *9248:A3 *445:14 0.000184412
17 *9255:A1 *445:14 0.00013063
18 *9357:I0 *9187:I1 0
19 *9357:I0 *445:20 0
20 *9408:CLK *9187:I1 8.55327e-05
21 *9499:I *445:14 0.000132679
22 *9499:I *445:20 0.000250919
23 *380:25 *9187:I1 0.000327687
24 *412:64 *445:14 0.000233597
25 *412:79 *445:14 0.000111416
26 *418:6 *9187:I1 3.73627e-05
27 *418:35 *9648:I 0
28 *419:14 *445:14 8.49926e-06
29 *419:27 *9648:I 0
30 *419:27 *445:20 0
*RES
1 *9475:Z *445:14 19.808 
2 *445:14 *445:20 9.82 
3 *445:20 *9563:I 9 
4 *445:20 *9648:I 24.884 
5 *445:14 *9187:I1 7.008 
*END

*D_NET *446 0.0428433
*CONN
*I *9203:I1 I *D gf180mcu_fd_sc_mcu7t5v0__mux2_2
*I *9199:I1 I *D gf180mcu_fd_sc_mcu7t5v0__mux2_2
*I *9195:I1 I *D gf180mcu_fd_sc_mcu7t5v0__mux2_2
*I *9191:I1 I *D gf180mcu_fd_sc_mcu7t5v0__mux2_2
*I *9207:I1 I *D gf180mcu_fd_sc_mcu7t5v0__mux2_2
*I *9211:I1 I *D gf180mcu_fd_sc_mcu7t5v0__mux2_2
*I *9647:Z O *D gf180mcu_fd_sc_mcu7t5v0__buf_4
*CAP
1 *9203:I1 0
2 *9199:I1 0.000199062
3 *9195:I1 0
4 *9191:I1 0.00114516
5 *9207:I1 0.000208088
6 *9211:I1 0
7 *9647:Z 0
8 *446:40 0.00149396
9 *446:36 0.000594282
10 *446:34 0.00023145
11 *446:21 0.000930247
12 *446:14 0.00379028
13 *446:6 0.011237
14 *446:4 0.00798382
15 *9195:I0 *9191:I1 3.15856e-05
16 *9195:S *9191:I1 7.24161e-06
17 *9199:S *9199:I1 7.71175e-06
18 *9203:I0 *446:40 0.00155153
19 *9203:S *9199:I1 0.000251045
20 *9207:I0 *9199:I1 2.57058e-06
21 *9207:S *9199:I1 0
22 *9207:S *9207:I1 1.06338e-05
23 *9211:I0 *446:14 0
24 *9211:S *9199:I1 0
25 *9211:S *9207:I1 3.69285e-05
26 *9211:S *446:14 2.57058e-06
27 *9211:S *446:21 8.02469e-05
28 *9429:D *446:40 0.00033338
29 *384:8 *9191:I1 0.00405341
30 *384:8 *446:40 8.86165e-05
31 *385:8 *446:34 0.000554564
32 *385:8 *446:36 0.000235981
33 *385:8 *446:40 0.00640195
34 *386:12 *446:34 3.83642e-05
35 *388:14 *9207:I1 1.58969e-05
36 *415:23 *446:40 0.00114466
37 *415:34 *446:40 1.04712e-05
38 *415:47 *446:34 3.09489e-05
39 *415:47 *446:36 5.06666e-05
40 *415:47 *446:40 8.59272e-06
41 *429:6 *9191:I1 8.04285e-05
*RES
1 *9647:Z *446:4 4.5 
2 *446:4 *446:6 47.348 
3 *446:6 *446:14 32.408 
4 *446:14 *9211:I1 4.5 
5 *446:14 *446:21 3.268 
6 *446:21 *9207:I1 5.868 
7 *446:21 *446:34 6.096 
8 *446:34 *446:36 0.684 
9 *446:36 *446:40 20.384 
10 *446:40 *9191:I1 24.976 
11 *446:40 *9195:I1 4.5 
12 *446:36 *9199:I1 10.596 
13 *446:34 *9203:I1 9 
*END

*D_NET *447 0.0473998
*CONN
*I *9365:I1 I *D gf180mcu_fd_sc_mcu7t5v0__mux2_2
*I *9647:I I *D gf180mcu_fd_sc_mcu7t5v0__buf_4
*I *9145:I1 I *D gf180mcu_fd_sc_mcu7t5v0__mux2_2
*I *9369:I1 I *D gf180mcu_fd_sc_mcu7t5v0__mux2_2
*I *9373:I1 I *D gf180mcu_fd_sc_mcu7t5v0__mux2_2
*I *9648:Z O *D gf180mcu_fd_sc_mcu7t5v0__buf_4
*CAP
1 *9365:I1 0
2 *9647:I 0
3 *9145:I1 0
4 *9369:I1 0.000133284
5 *9373:I1 0
6 *9648:Z 0.00235486
7 *447:49 0.010232
8 *447:47 0.010232
9 *447:45 0.0066346
10 *447:36 0.00682405
11 *447:25 0.00048866
12 *447:16 0.000367886
13 *447:10 0.00255682
14 *447:10 *9601:I 0.000175636
15 *447:10 *9603:I 0.000232732
16 *447:16 *9600:I 0
17 *447:16 *9602:I 0.000158809
18 *447:36 *9603:I 0.000287297
19 *447:45 *9289:A1 0.000977764
20 *447:45 *9290:A1 0.000106627
21 *9365:S *447:16 3.17546e-05
22 *9369:S *9369:I1 0.000101612
23 *9369:S *447:25 0.000553434
24 *9369:S *447:36 0.000151957
25 *9373:I0 *9369:I1 1.32943e-05
26 *9503:I *447:45 0.000173001
27 *9504:I *447:45 0.00191136
28 *418:35 *447:10 0
29 *419:27 *447:10 0.000427194
30 *419:29 *447:10 0.00165172
31 *419:29 *447:16 0.000279004
32 *419:40 *447:16 6.35236e-05
33 *419:40 *447:25 0.000278996
*RES
1 *9648:Z *447:10 36.528 
2 *447:10 *447:16 6.172 
3 *447:16 *9373:I1 9 
4 *447:16 *447:25 2.052 
5 *447:25 *9369:I1 9.836 
6 *447:25 *447:36 2.204 
7 *447:36 *9145:I1 9 
8 *447:36 *447:45 52.212 
9 *447:45 *447:47 4.5 
10 *447:47 *447:49 60.724 
11 *447:49 *9647:I 4.5 
12 *447:10 *9365:I1 4.5 
*END

*D_NET *448 0.0490351
*CONN
*I *9349:I1 I *D gf180mcu_fd_sc_mcu7t5v0__mux2_2
*I *9183:I1 I *D gf180mcu_fd_sc_mcu7t5v0__mux2_2
*I *9353:I1 I *D gf180mcu_fd_sc_mcu7t5v0__mux2_2
*I *9361:I1 I *D gf180mcu_fd_sc_mcu7t5v0__mux2_2
*I *9357:I1 I *D gf180mcu_fd_sc_mcu7t5v0__mux2_2
*I *9563:Z O *D gf180mcu_fd_sc_mcu7t5v0__buf_4
*CAP
1 *9349:I1 0
2 *9183:I1 0.000101943
3 *9353:I1 0
4 *9361:I1 0
5 *9357:I1 0.00031558
6 *9563:Z 0.000357489
7 *448:69 0.00330828
8 *448:61 0.00535737
9 *448:49 0.00282568
10 *448:38 0.000758195
11 *448:20 0.000935941
12 *448:12 0.0010614
13 *448:12 *9284:A1 3.52644e-05
14 *448:12 *9614:I 0.000663977
15 *448:20 *9614:I 1.40792e-05
16 *448:38 *9614:I 5.28375e-05
17 *448:49 *9185:A1 9.46915e-05
18 *448:49 *9614:I 2.51987e-05
19 *448:49 *9633:D[1] 0.000356655
20 *448:61 *9347:A1 0
21 *448:61 *9350:A1 0
22 *448:61 *9596:I 0.000170029
23 *448:61 *686:27 0.00135378
24 *448:69 *559:14 0.000710873
25 tl_o[13] *9357:I1 0.00020516
26 tl_o[13] *448:20 0.000104693
27 tl_o[41] *448:20 0.00142418
28 *9187:I0 *448:49 0
29 *9284:A2 *448:49 1.2339e-05
30 *9347:A2 *448:49 1.50832e-06
31 *9348:A1 *448:61 0.000265392
32 *9352:A1 *448:49 0.001023
33 *9353:I0 *448:49 5.76373e-06
34 *9353:S *448:49 0.00010531
35 *9361:I0 *448:12 0
36 *9361:I0 *448:20 0.000123745
37 *9361:S *448:20 0
38 *9425:CLK *448:49 0.000140167
39 *9578:I *448:61 7.5424e-05
40 *190:10 *448:61 0.00278097
41 *190:23 *448:61 0.00470966
42 *192:10 *9183:I1 0.00378269
43 *205:12 *448:49 6.78656e-05
44 *205:12 *448:61 3.73074e-05
45 *207:12 *448:49 1.47007e-05
46 *258:20 *448:69 0.000567311
47 *278:10 *448:69 5.14116e-06
48 *278:23 *9183:I1 0.00377717
49 *278:23 *448:69 0.000512066
50 *281:16 *448:69 0.00841759
51 *375:94 *9357:I1 1.31662e-05
52 *380:8 *448:12 0
53 *380:8 *448:20 3.35959e-05
54 *380:8 *448:38 0.000432249
55 *380:8 *448:49 8.55242e-05
56 *380:25 *448:49 0
57 *381:63 *448:49 0.000145579
58 *381:63 *448:61 0.000165884
59 *381:83 *448:49 0.000681531
60 *412:45 *448:69 0.000242033
61 *418:6 *448:49 0
62 *418:35 *448:12 0.000262332
63 *419:14 *448:20 0
64 *439:35 *9183:I1 0.000294104
65 *445:20 *448:20 2.07322e-05
*RES
1 *9563:Z *448:12 16.54 
2 *448:12 *448:20 10.656 
3 *448:20 *9357:I1 11.356 
4 *448:20 *9361:I1 9 
5 *448:12 *448:38 1.14 
6 *448:38 *9353:I1 4.5 
7 *448:38 *448:49 12.708 
8 *448:49 *448:61 39.872 
9 *448:61 *448:69 40.464 
10 *448:69 *9183:I1 14.152 
11 *448:49 *9349:I1 9 
*END

*D_NET *449 0.0906203
*CONN
*I *9272:A2 I *D gf180mcu_fd_sc_mcu7t5v0__nor3_2
*I *9282:A2 I *D gf180mcu_fd_sc_mcu7t5v0__nor3_2
*I *9250:A2 I *D gf180mcu_fd_sc_mcu7t5v0__oai31_1
*I *9249:A1 I *D gf180mcu_fd_sc_mcu7t5v0__nand2_1
*I *9302:A2 I *D gf180mcu_fd_sc_mcu7t5v0__nor3_4
*I *9292:A2 I *D gf180mcu_fd_sc_mcu7t5v0__nor3_4
*I *9237:A3 I *D gf180mcu_fd_sc_mcu7t5v0__nor3_1
*I *9236:A3 I *D gf180mcu_fd_sc_mcu7t5v0__nor3_1
*I *9483:Z O *D gf180mcu_fd_sc_mcu7t5v0__clkbuf_2
*CAP
1 *9272:A2 0.000122952
2 *9282:A2 0.000641701
3 *9250:A2 8.26078e-05
4 *9249:A1 5.58436e-05
5 *9302:A2 0.00045646
6 *9292:A2 0.00309173
7 *9237:A3 0
8 *9236:A3 0
9 *9483:Z 0.00160199
10 *449:129 0.000863626
11 *449:116 0.000202895
12 *449:86 0.0035482
13 *449:84 0.00664813
14 *449:82 0.00802393
15 *449:59 0.00277196
16 *449:38 0.00204884
17 *449:32 0.00228212
18 *449:16 0.00334664
19 *9282:A2 *9252:A1 8.62869e-05
20 *9282:A2 *471:10 0.000432987
21 *9282:A2 *471:21 0.000711165
22 *9282:A2 *512:26 6.3293e-05
23 *449:16 *9218:A1 0
24 *449:16 *9218:A2 4.28201e-05
25 *449:16 *9229:A2 0
26 *449:16 *9279:A1 0
27 *449:16 *9339:A1 0.000303305
28 *449:16 *9632:D[6] 0.000601239
29 *449:32 *9129:I 0.000333054
30 *449:32 *9228:A2 8.63341e-05
31 *449:32 *9240:A1 9.29141e-05
32 *449:32 *9271:A2 2.3367e-05
33 *449:32 *9383:I0 0.0027901
34 *449:32 *460:18 0.000165295
35 *449:32 *460:22 0.000232265
36 *449:32 *512:26 0.000288914
37 *449:32 *530:22 0.00115709
38 *449:38 *594:83 0.000183682
39 *449:59 *9231:A1 8.06713e-05
40 *449:59 *595:33 0.000142809
41 *449:59 *648:34 0
42 *449:82 *9131:A1 0
43 *449:82 *593:12 8.59272e-06
44 *449:116 *512:26 0.000188292
45 *449:129 *512:26 0.00190606
46 tl_o[14] *449:32 0.000378809
47 tl_o[4] *9249:A1 1.60964e-05
48 *9138:A4 *9282:A2 0.000145334
49 *9235:A2 *9250:A2 4.15776e-06
50 *9235:A2 *9282:A2 0.000910835
51 *9237:A1 *449:59 0.000212712
52 *9239:B2 *449:32 0.000400787
53 *9249:A2 *9249:A1 0.000118665
54 *9255:A2 *9250:A2 0
55 *9262:A2 *9250:A2 0.000239287
56 *9263:A1 *9282:A2 3.19219e-05
57 *9282:A1 *9282:A2 0.00145751
58 *9292:A1 *9292:A2 0
59 *9302:A1 *9302:A2 0.000508189
60 *9333:I0 *449:16 0.000927753
61 *9336:A1 *449:16 0.000292033
62 *9337:I0 *449:16 0.000301355
63 *9345:I0 *449:32 4.86993e-06
64 *9388:A1 *9282:A2 0.00109126
65 *9388:A1 *449:129 5.37423e-05
66 *9388:A2 *9282:A2 0.000194839
67 *9394:A2 *449:16 4.40836e-05
68 *9397:D *449:84 3.35867e-05
69 *9397:CLK *449:84 2.87321e-05
70 *9399:D *449:84 0.000317494
71 *9399:CLK *449:84 0.00702556
72 *9440:D *449:32 0.000244136
73 *9457:I *449:84 0.000110382
74 *9472:I *449:32 0.000486685
75 *9496:I *449:16 8.39113e-05
76 *9544:I *9250:A2 1.52768e-05
77 *9580:I *449:59 0.000191882
78 *9666:I *9282:A2 0.000153628
79 *9666:I *449:129 0.000142301
80 *202:12 *449:16 0.000806387
81 *203:12 *449:16 0
82 *204:8 *449:16 0.00025239
83 *249:12 *449:82 0.000359001
84 *249:16 *449:82 0.000431543
85 *255:14 *9282:A2 0.000185185
86 *256:12 *449:82 1.97747e-05
87 *299:12 *449:59 2.86762e-07
88 *299:12 *449:82 1.04207e-05
89 *299:16 *449:82 6.63595e-05
90 *328:12 *9272:A2 0.000217775
91 *328:12 *449:16 7.195e-05
92 *329:12 *9282:A2 0.000368188
93 *365:14 *449:38 0
94 *369:18 *449:32 1.18127e-05
95 *369:18 *449:38 0.000268494
96 *370:14 *449:32 2.99545e-05
97 *370:14 *449:38 0.000194411
98 *371:8 *9272:A2 0.000301608
99 *374:36 *449:84 0.00262169
100 *375:36 *449:84 0.00010269
101 *375:72 *449:84 0.00265359
102 *375:94 *9282:A2 9.1713e-05
103 *378:91 *449:16 8.64766e-06
104 *378:102 *449:32 0.000114664
105 *378:108 *449:16 0
106 *378:135 *449:32 2.89888e-05
107 *378:146 *449:32 5.33384e-05
108 *378:159 *449:32 2.4706e-05
109 *393:14 *449:16 0.00011955
110 *438:12 *449:16 0
111 *438:29 *449:32 0.000238012
112 *438:33 *449:38 0.000354758
113 *438:56 *449:38 1.17066e-05
114 *438:56 *449:59 2.42928e-05
115 *438:72 *449:59 0
116 *438:72 *449:82 0
117 *438:76 *449:84 0.00153288
118 *438:82 *9292:A2 9.30957e-05
119 *438:82 *9302:A2 8.84331e-05
120 *438:82 *449:84 0.0149291
121 *438:119 *449:32 0.00013858
122 *438:119 *449:116 0.00019621
123 *438:119 *449:129 0.00171403
124 *438:125 *9282:A2 6.18153e-06
*RES
1 *9483:Z *449:16 28.548 
2 *449:16 *449:32 33.792 
3 *449:32 *449:38 13.94 
4 *449:38 *9236:A3 9 
5 *449:38 *449:59 17.74 
6 *449:59 *9237:A3 9 
7 *449:59 *449:82 29.872 
8 *449:82 *449:84 81.396 
9 *449:84 *449:86 4.5 
10 *449:86 *9292:A2 38.064 
11 *449:86 *9302:A2 12.724 
12 *449:32 *449:116 0.532 
13 *449:116 *9249:A1 9.38 
14 *449:116 *449:129 5.168 
15 *449:129 *9250:A2 9.684 
16 *449:129 *9282:A2 19.868 
17 *449:16 *9272:A2 5.944 
*END

*D_NET *450 0.0217015
*CONN
*I *9290:A2 I *D gf180mcu_fd_sc_mcu7t5v0__and2_1
*I *9289:A2 I *D gf180mcu_fd_sc_mcu7t5v0__and2_1
*I *9288:A2 I *D gf180mcu_fd_sc_mcu7t5v0__and2_1
*I *9287:A2 I *D gf180mcu_fd_sc_mcu7t5v0__and2_1
*I *9286:A2 I *D gf180mcu_fd_sc_mcu7t5v0__and2_1
*I *9649:Z O *D gf180mcu_fd_sc_mcu7t5v0__buf_2
*CAP
1 *9290:A2 0.00110364
2 *9289:A2 0
3 *9288:A2 0
4 *9287:A2 0
5 *9286:A2 0
6 *9649:Z 0.000359084
7 *450:35 0.00135675
8 *450:26 0.0020596
9 *450:17 0.00819742
10 *450:8 0.00675001
11 *9373:I0 *450:17 0.000266114
12 *211:10 *450:17 0.00018436
13 *380:152 *450:8 9.48756e-05
14 *380:152 *450:17 0.0013296
*RES
1 *9649:Z *450:8 11.508 
2 *450:8 *9286:A2 9 
3 *450:8 *450:17 51.756 
4 *450:17 *9287:A2 9 
5 *450:17 *450:26 12.692 
6 *450:26 *9288:A2 9 
7 *450:26 *450:35 1.444 
8 *450:35 *9289:A2 9 
9 *450:35 *9290:A2 16.22 
*END

*D_NET *451 0.0225378
*CONN
*I *9277:A2 I *D gf180mcu_fd_sc_mcu7t5v0__and2_1
*I *9276:A2 I *D gf180mcu_fd_sc_mcu7t5v0__and2_1
*I *9275:A2 I *D gf180mcu_fd_sc_mcu7t5v0__and2_1
*I *9274:A2 I *D gf180mcu_fd_sc_mcu7t5v0__and2_1
*I *9273:A2 I *D gf180mcu_fd_sc_mcu7t5v0__and2_1
*I *9650:Z O *D gf180mcu_fd_sc_mcu7t5v0__buf_2
*CAP
1 *9277:A2 0
2 *9276:A2 0
3 *9275:A2 0
4 *9274:A2 0
5 *9273:A2 0.00108149
6 *9650:Z 0.00069077
7 *451:20 0.00132649
8 *451:18 0.00202342
9 *451:16 0.00915215
10 *451:14 0.00742597
11 *451:10 0.000743012
12 *451:16 *9319:A1 4.72989e-05
13 *9321:I0 *451:16 0
14 *9650:I *451:10 4.71484e-05
15 *198:12 *451:16 0
*RES
1 *9650:Z *451:10 13.864 
2 *451:10 *451:14 0.38 
3 *451:14 *451:16 52.592 
4 *451:16 *451:18 11.78 
5 *451:18 *451:20 1.596 
6 *451:20 *9273:A2 16.676 
7 *451:20 *9274:A2 9 
8 *451:18 *9275:A2 9 
9 *451:16 *9276:A2 9 
10 *451:10 *9277:A2 9 
*END

*D_NET *452 0.0366316
*CONN
*I *9635:WEN[7] I *D gf180mcu_fd_ip_sram__sram256x8m8wm1
*I *9635:WEN[6] I *D gf180mcu_fd_ip_sram__sram256x8m8wm1
*I *9635:WEN[5] I *D gf180mcu_fd_ip_sram__sram256x8m8wm1
*I *9635:WEN[4] I *D gf180mcu_fd_ip_sram__sram256x8m8wm1
*I *9635:WEN[3] I *D gf180mcu_fd_ip_sram__sram256x8m8wm1
*I *9635:WEN[2] I *D gf180mcu_fd_ip_sram__sram256x8m8wm1
*I *9635:WEN[1] I *D gf180mcu_fd_ip_sram__sram256x8m8wm1
*I *9635:WEN[0] I *D gf180mcu_fd_ip_sram__sram256x8m8wm1
*I *9564:Z O *D gf180mcu_fd_sc_mcu7t5v0__buf_4
*CAP
1 *9635:WEN[7] 0.00206231
2 *9635:WEN[6] 2.95037e-05
3 *9635:WEN[5] 2.71862e-05
4 *9635:WEN[4] 5.46878e-05
5 *9635:WEN[3] 4.37917e-05
6 *9635:WEN[2] 1.96989e-05
7 *9635:WEN[1] 3.69911e-05
8 *9635:WEN[0] 0.00406105
9 *9564:Z 0.00201583
10 *452:102 0.00221062
11 *452:92 0.00211257
12 *452:82 0.00425255
13 *452:80 0.00754445
14 *452:48 0.00734923
15 *452:38 0.00213941
16 *452:28 0.00220966
17 *9635:WEN[7] *9208:A1 0
18 *9635:WEN[7] *9635:D[7] 0
19 *9635:WEN[6] *9635:D[6] 1.94732e-05
20 *9635:WEN[5] *9635:D[5] 3.76625e-05
21 *9635:WEN[4] *9635:D[4] 8.833e-06
22 *9635:WEN[3] *9192:A1 0
23 *9635:WEN[3] *9635:D[3] 3.76625e-05
24 *9635:WEN[2] *9635:D[2] 3.76625e-05
25 *9635:WEN[1] *9635:D[1] 1.94732e-05
26 *9635:WEN[0] *9180:A1 0
27 *9635:WEN[0] *9635:D[0] 8.833e-06
28 *452:28 *9180:A1 0
29 *452:28 *578:11 0.000292452
*RES
1 *9564:Z *9635:WEN[0] 17.002 
2 *9635:WEN[0] *452:28 19.206 
3 *452:28 *9635:WEN[1] 4.842 
4 *452:28 *452:38 0.684 
5 *452:38 *9635:WEN[2] 4.842 
6 *452:38 *452:48 14.212 
7 *452:48 *9635:WEN[3] 4.842 
8 *452:48 *452:80 38.456 
9 *452:80 *452:82 15.884 
10 *452:82 *9635:WEN[4] 4.842 
11 *452:82 *452:92 13.756 
12 *452:92 *9635:WEN[5] 4.842 
13 *452:92 *452:102 0.684 
14 *452:102 *9635:WEN[6] 4.842 
15 *452:102 *9635:WEN[7] 18.446 
*END

*D_NET *453 0.0409605
*CONN
*I *9634:WEN[7] I *D gf180mcu_fd_ip_sram__sram256x8m8wm1
*I *9634:WEN[6] I *D gf180mcu_fd_ip_sram__sram256x8m8wm1
*I *9634:WEN[5] I *D gf180mcu_fd_ip_sram__sram256x8m8wm1
*I *9634:WEN[4] I *D gf180mcu_fd_ip_sram__sram256x8m8wm1
*I *9634:WEN[3] I *D gf180mcu_fd_ip_sram__sram256x8m8wm1
*I *9634:WEN[2] I *D gf180mcu_fd_ip_sram__sram256x8m8wm1
*I *9634:WEN[1] I *D gf180mcu_fd_ip_sram__sram256x8m8wm1
*I *9634:WEN[0] I *D gf180mcu_fd_ip_sram__sram256x8m8wm1
*I *9565:Z O *D gf180mcu_fd_sc_mcu7t5v0__clkbuf_8
*CAP
1 *9634:WEN[7] 5.01375e-05
2 *9634:WEN[6] 2.34241e-05
3 *9634:WEN[5] 3.09115e-05
4 *9634:WEN[4] 5.46878e-05
5 *9634:WEN[3] 4.7517e-05
6 *9634:WEN[2] 1.96989e-05
7 *9634:WEN[1] 3.09115e-05
8 *9634:WEN[0] 0.00196373
9 *9565:Z 0.00380558
10 *453:44 0.00210841
11 *453:42 0.00220086
12 *453:40 0.0029493
13 *453:38 0.00754202
14 *453:22 0.00869598
15 *453:20 0.00207833
16 *453:18 0.002218
17 *453:14 0.00593652
18 *9634:WEN[7] *9175:A1 0
19 *9634:WEN[6] *9634:D[6] 2.61392e-05
20 *9634:WEN[5] *9634:D[5] 2.61392e-05
21 *9634:WEN[4] *9163:A1 0
22 *9634:WEN[4] *9634:D[4] 8.833e-06
23 *9634:WEN[3] *9159:A1 0
24 *9634:WEN[3] *9634:D[3] 2.61392e-05
25 *9634:WEN[2] *9634:D[2] 3.76625e-05
26 *9634:WEN[1] *9634:D[1] 2.61392e-05
27 *9634:WEN[0] *9147:A1 0
28 *9634:WEN[0] *9634:D[0] 0
29 *453:14 *9175:A1 0
30 *453:22 *9163:A1 0
31 *453:38 *9163:A1 0
32 *9292:A1 *453:14 0
33 *9292:A3 *453:14 0.000285437
34 *9300:A2 *453:14 5.18727e-05
35 *330:6 *453:14 0.000716095
36 *379:38 *453:14 0
*RES
1 *9565:Z *453:14 40.024 
2 *453:14 *453:18 18.256 
3 *453:18 *453:20 0.684 
4 *453:20 *453:22 13.756 
5 *453:22 *453:38 47.88 
6 *453:38 *453:40 6.004 
7 *453:40 *453:42 14.06 
8 *453:42 *453:44 0.684 
9 *453:44 *9634:WEN[0] 18.446 
10 *453:44 *9634:WEN[1] 4.842 
11 *453:42 *9634:WEN[2] 4.842 
12 *453:40 *9634:WEN[3] 4.842 
13 *453:22 *9634:WEN[4] 4.842 
14 *453:20 *9634:WEN[5] 4.842 
15 *453:18 *9634:WEN[6] 4.842 
16 *453:14 *9634:WEN[7] 0.342 
*END

*D_NET *454 0.0524882
*CONN
*I *9634:A[7] I *D gf180mcu_fd_ip_sram__sram256x8m8wm1
*I *9632:A[7] I *D gf180mcu_fd_ip_sram__sram256x8m8wm1
*I *9651:Z O *D gf180mcu_fd_sc_mcu7t5v0__buf_8
*CAP
1 *9634:A[7] 8.38847e-05
2 *9632:A[7] 0.00101997
3 *9651:Z 0.000995329
4 *454:30 0.0148109
5 *454:28 0.0147517
6 *9632:A[7] *9632:A[1] 0.00958856
7 *332:45 *9632:A[7] 0.0112379
*RES
1 *9651:Z *9632:A[7] 44.85 
2 *9632:A[7] *454:28 9.342 
3 *454:28 *454:30 108.756 
4 *454:30 *9634:A[7] 9.494 
*END

*D_NET *455 0.0462099
*CONN
*I *9635:A[7] I *D gf180mcu_fd_ip_sram__sram256x8m8wm1
*I *9633:A[7] I *D gf180mcu_fd_ip_sram__sram256x8m8wm1
*I *9652:Z O *D gf180mcu_fd_sc_mcu7t5v0__buf_8
*CAP
1 *9635:A[7] 4.92051e-05
2 *9633:A[7] 8.38847e-05
3 *9652:Z 0.00127217
4 *455:30 0.0148192
5 *455:18 0.0161261
6 *455:18 *9350:A1 2.79132e-05
7 *455:18 *9358:A1 5.57409e-05
8 *455:18 *9633:D[2] 4.72007e-05
9 *455:18 *9633:D[1] 0.000978955
10 *455:18 *466:18 0.00740559
11 *455:18 *468:22 0.00534399
12 *455:30 *466:18 0
*RES
1 *9652:Z *455:18 40.024 
2 *455:18 *9633:A[7] 9.494 
3 *455:18 *455:30 109.06 
4 *455:30 *9635:A[7] 9.342 
*END

*D_NET *456 0.052053
*CONN
*I *9634:A[6] I *D gf180mcu_fd_ip_sram__sram256x8m8wm1
*I *9632:A[6] I *D gf180mcu_fd_ip_sram__sram256x8m8wm1
*I *9653:Z O *D gf180mcu_fd_sc_mcu7t5v0__buf_4
*CAP
1 *9634:A[6] 0
2 *9632:A[6] 0.000709388
3 *9653:Z 0.000709388
4 *456:25 0.012589
5 *456:23 0.012589
6 *9632:A[6] *9632:A[5] 1.0491e-05
7 *9632:A[6] *9632:A[4] 0.0104772
8 *9632:A[6] *458:18 0.00912115
9 *456:25 *458:26 0.00438947
10 *9663:I *9632:A[6] 0.00116543
11 *332:45 *9632:A[6] 0.000292487
*RES
1 *9653:Z *9632:A[6] 44.47 
2 *9632:A[6] *456:23 9 
3 *456:23 *456:25 107.844 
4 *456:25 *9634:A[6] 9 
*END

*D_NET *457 0.042747
*CONN
*I *9635:A[6] I *D gf180mcu_fd_ip_sram__sram256x8m8wm1
*I *9633:A[6] I *D gf180mcu_fd_ip_sram__sram256x8m8wm1
*I *9654:Z O *D gf180mcu_fd_sc_mcu7t5v0__buf_8
*CAP
1 *9635:A[6] 0
2 *9633:A[6] 0
3 *9654:Z 0.00221001
4 *457:21 0.0126671
5 *457:12 0.0148771
6 *457:12 *459:14 0.000136001
7 *457:12 *459:26 1.28147e-05
8 *457:12 *464:12 0.00768851
9 *457:21 *459:26 0.00444729
10 *258:62 *457:12 0.000708139
*RES
1 *9654:Z *457:12 40.708 
2 *457:12 *9633:A[6] 9 
3 *457:12 *457:21 108.908 
4 *457:21 *9635:A[6] 9 
*END

*D_NET *458 0.0474577
*CONN
*I *9632:A[5] I *D gf180mcu_fd_ip_sram__sram256x8m8wm1
*I *9634:A[5] I *D gf180mcu_fd_ip_sram__sram256x8m8wm1
*I *9655:Z O *D gf180mcu_fd_sc_mcu7t5v0__buf_4
*CAP
1 *9632:A[5] 7.8322e-05
2 *9634:A[5] 8.38847e-05
3 *9655:Z 0.00309152
4 *458:26 0.0128313
5 *458:24 0.0127538
6 *458:18 0.00317623
7 *9632:A[5] *9632:A[4] 0
8 *9634:A[5] *9634:A[4] 0
9 *458:18 *9330:A1 0.000426604
10 *458:18 *9334:A1 3.54432e-05
11 *458:18 *9342:A1 5.4811e-06
12 *458:18 *9394:A1 0
13 *458:18 *9632:A[4] 0.000343983
14 *458:18 *9632:D[7] 0
15 *458:26 *461:30 0
16 *458:26 *461:32 0
17 *9632:A[6] *9632:A[5] 1.0491e-05
18 *9632:A[6] *458:18 0.00912115
19 *9663:I *458:18 0.000940944
20 *189:44 *458:24 8.06713e-05
21 *407:22 *458:24 8.8425e-05
22 *456:25 *458:26 0.00438947
*RES
1 *9655:Z *458:18 46.256 
2 *458:18 *458:24 9.228 
3 *458:24 *458:26 108.908 
4 *458:26 *9634:A[5] 9.494 
5 *458:18 *9632:A[5] 0.494 
*END

*D_NET *459 0.038521
*CONN
*I *9635:A[5] I *D gf180mcu_fd_ip_sram__sram256x8m8wm1
*I *9633:A[5] I *D gf180mcu_fd_ip_sram__sram256x8m8wm1
*I *9656:Z O *D gf180mcu_fd_sc_mcu7t5v0__buf_8
*CAP
1 *9635:A[5] 8.38847e-05
2 *9633:A[5] 4.38734e-05
3 *9656:Z 0.00403364
4 *459:26 0.0126061
5 *459:14 0.0165997
6 *9633:A[5] *9633:A[4] 1.15676e-05
7 *9635:A[5] *9635:A[4] 0
8 *459:14 *462:14 0.000193684
9 *459:26 *462:14 3.20368e-06
10 *459:26 *462:28 0.000259498
11 *459:26 *462:30 0
12 *9364:A1 *459:14 8.97421e-05
13 *440:43 *459:14 0
14 *457:12 *459:14 0.000136001
15 *457:12 *459:26 1.28147e-05
16 *457:21 *459:26 0.00444729
*RES
1 *9656:Z *459:14 42.912 
2 *459:14 *9633:A[5] 9.342 
3 *459:14 *459:26 108.756 
4 *459:26 *9635:A[5] 9.494 
*END

*D_NET *460 0.0505196
*CONN
*I *9226:A1 I *D gf180mcu_fd_sc_mcu7t5v0__and2_2
*I *9228:A1 I *D gf180mcu_fd_sc_mcu7t5v0__and2_2
*I *9223:A2 I *D gf180mcu_fd_sc_mcu7t5v0__and2_2
*I *9281:A1 I *D gf180mcu_fd_sc_mcu7t5v0__nand2_1
*I *9301:A1 I *D gf180mcu_fd_sc_mcu7t5v0__nand2_2
*I *9128:I I *D gf180mcu_fd_sc_mcu7t5v0__clkinv_1
*I *9291:A1 I *D gf180mcu_fd_sc_mcu7t5v0__nand2_2
*I *9224:A1 I *D gf180mcu_fd_sc_mcu7t5v0__and2_2
*I *9227:A1 I *D gf180mcu_fd_sc_mcu7t5v0__and2_2
*I *9261:A1 I *D gf180mcu_fd_sc_mcu7t5v0__nand4_1
*I *9225:A1 I *D gf180mcu_fd_sc_mcu7t5v0__and2_2
*I *9229:A1 I *D gf180mcu_fd_sc_mcu7t5v0__and2_2
*I *9271:A1 I *D gf180mcu_fd_sc_mcu7t5v0__nand2_1
*I *9230:A1 I *D gf180mcu_fd_sc_mcu7t5v0__and2_2
*I *9232:A1 I *D gf180mcu_fd_sc_mcu7t5v0__nand2_1
*I *9484:Z O *D gf180mcu_fd_sc_mcu7t5v0__dlyd_1
*CAP
1 *9226:A1 0.000286757
2 *9228:A1 4.15889e-05
3 *9223:A2 8.1104e-05
4 *9281:A1 0
5 *9301:A1 5.81997e-05
6 *9128:I 0.000943906
7 *9291:A1 0.000270371
8 *9224:A1 0
9 *9227:A1 0.00011778
10 *9261:A1 0.000605522
11 *9225:A1 0.000170861
12 *9229:A1 0
13 *9271:A1 8.97279e-05
14 *9230:A1 7.01774e-05
15 *9232:A1 5.59522e-05
16 *9484:Z 1.89903e-05
17 *460:164 0.00188473
18 *460:160 0.0019674
19 *460:150 0.00249326
20 *460:129 0.00158805
21 *460:123 0.000513004
22 *460:110 0.000463862
23 *460:106 0.000430735
24 *460:81 0.00126259
25 *460:77 0.00102347
26 *460:30 0.000745148
27 *460:22 0.00100425
28 *460:18 0.00033165
29 *460:14 0.000520076
30 *460:8 0.000553135
31 *9128:I *9449:D 9.78529e-05
32 *9223:A2 *9223:A1 6.5907e-05
33 *9225:A1 *9225:A2 0.00047407
34 *9226:A1 *9226:A2 0.000146853
35 *9227:A1 *9227:A2 0.00024705
36 *9227:A1 *594:32 8.50198e-05
37 *9230:A1 *9230:A2 0.00014967
38 *9230:A1 *9232:A2 0.000623581
39 *9232:A1 *9232:A2 0.00020108
40 *9232:A1 *9280:A1 1.20079e-05
41 *9261:A1 *9257:A1 0.000228565
42 *9261:A1 *513:24 0.000682608
43 *9261:A1 *594:32 0.000100702
44 *9271:A1 *9271:A2 0.00018513
45 *9291:A1 *514:69 0.000345227
46 *9301:A1 *9301:A2 0.000121764
47 *9301:A1 *9377:I0 8.55327e-05
48 *460:8 *9230:A2 0.000193933
49 *460:8 *9381:I0 0.000186796
50 *460:14 *9225:A2 0.000528901
51 *460:14 *9229:A2 2.68517e-05
52 *460:14 *9381:I0 0.000487618
53 *460:14 *594:32 1.31444e-05
54 *460:18 *9271:A2 0.000190791
55 *460:22 *9271:A2 0.000782467
56 *460:22 *9343:A1 1.86291e-05
57 *460:30 *9280:A1 8.08741e-05
58 *460:30 *9335:A1 0.000190028
59 *460:77 *594:32 0.000325274
60 *460:81 *515:8 0.000943322
61 *460:81 *515:25 0.000623325
62 *460:81 *530:22 2.57782e-05
63 *460:81 *594:32 0.000402108
64 *460:106 *530:22 7.50556e-05
65 *460:106 *594:32 7.44785e-05
66 *460:110 *9228:A2 9.10381e-06
67 *460:110 *594:32 0.000160868
68 *460:123 *594:32 3.28992e-05
69 *460:129 *9223:A1 5.49899e-05
70 *460:150 *9254:A2 3.79787e-05
71 *460:150 *9269:A2 7.89192e-05
72 *460:150 *9393:I1 7.71175e-06
73 *460:150 *9591:I 0.000238204
74 *460:150 *512:94 0.000666516
75 *460:150 *603:25 5.18155e-05
76 *460:160 *9141:A1 0.000787065
77 *460:160 *9141:A2 0.000171918
78 *460:160 *9301:A2 0.000201947
79 *460:160 *9375:I1 0.000537426
80 *460:160 *512:94 8.55327e-05
81 *460:160 *648:8 0
82 *460:160 *648:89 0.000112415
83 *460:160 *651:6 0.000581318
84 *460:160 *686:10 0.000218985
85 *460:160 *687:8 4.38802e-05
86 *460:164 *9301:A2 0.00034088
87 *460:164 *9377:I0 0.000199746
88 *460:164 *514:69 0.000288071
89 *9238:A1 *9225:A1 1.39031e-05
90 *9249:A2 *460:129 4.94618e-05
91 *9249:A2 *460:150 8.89622e-05
92 *9253:A1 *460:150 9.78301e-05
93 *9257:A2 *9261:A1 0.000118659
94 *9257:B1 *9261:A1 0.000385601
95 *9260:A2 *9228:A1 2.7435e-05
96 *9263:A1 *460:150 0.000226959
97 *9263:A2 *460:150 0.000289227
98 *9263:A3 *460:150 0.00029964
99 *9265:A1 *460:160 4.24194e-05
100 *9268:I1 *9128:I 0.000741951
101 *9312:A4 *460:150 0
102 *9312:A4 *460:160 0.000379302
103 *9333:I0 *9230:A1 0
104 *9335:A2 *460:30 4.38876e-05
105 *9336:A2 *460:30 3.62081e-05
106 *9337:I0 *460:22 8.69663e-05
107 *9340:A1 *9271:A1 0
108 *9341:I0 *9232:A1 3.56172e-05
109 *9341:I0 *460:30 2.11447e-05
110 *9345:I0 *460:14 0.00172511
111 *9345:I0 *460:77 0.00179623
112 *9345:I0 *460:81 0.000128271
113 *9377:S *460:164 0.000151949
114 *9388:B *460:150 0.000226133
115 *9394:A2 *460:14 4.94053e-05
116 *9395:B *9226:A1 0
117 *9396:D *9128:I 0.000134564
118 *9399:D *460:164 2.62062e-05
119 *9406:D *460:30 6.13012e-05
120 *9406:CLK *460:30 7.66819e-05
121 *9440:CLK *460:14 0.000424397
122 *9446:D *460:150 0.000238195
123 *9472:I *460:110 0
124 *9478:I *460:150 0.000292838
125 *9479:I *9227:A1 5.1289e-05
126 *9479:I *460:123 0
127 *9479:I *460:129 2.64841e-05
128 *9480:I *9261:A1 0.000989313
129 *9481:I *9223:A2 8.1499e-05
130 *9481:I *9227:A1 3.94587e-05
131 *9481:I *460:123 0
132 *9481:I *460:129 6.26721e-05
133 *9529:I *9261:A1 0.00148645
134 *9539:I *9226:A1 0.000572358
135 *9542:I *9226:A1 3.35867e-05
136 *9545:I *9227:A1 2.05156e-05
137 *9545:I *460:110 0.000189916
138 *9545:I *460:123 0.000426308
139 *9545:I *460:129 0.000171289
140 *9577:I *9225:A1 0.000333388
141 *9580:I *460:160 0
142 *9639:I *460:129 0.000121573
143 *9639:I *460:150 0.000218306
144 *204:8 *460:14 0.000197186
145 *248:8 *9228:A1 3.98682e-05
146 *281:16 *460:150 0.000702053
147 *281:16 *460:160 0.000250945
148 *328:20 *9230:A1 0.000396912
149 *328:20 *460:30 0
150 *371:22 *9225:A1 0.000333388
151 *372:18 *9230:A1 1.90706e-05
152 *380:207 *9128:I 0.000179609
153 *380:220 *9128:I 0.000140885
154 *380:229 *9128:I 9.58759e-05
155 *402:26 *9225:A1 0.000633059
156 *404:14 *9223:A2 5.76063e-06
157 *404:14 *460:129 3.93649e-05
158 *405:25 *9261:A1 0.000249416
159 *407:57 *460:160 0
160 *412:45 *9301:A1 9.42885e-05
161 *412:45 *460:160 0.000113519
162 *422:85 *9226:A1 0.00129831
163 *424:8 *9271:A1 7.54771e-06
164 *424:8 *460:30 1.49066e-06
165 *424:19 *460:22 0.000335667
166 *438:12 *9271:A1 3.34412e-05
167 *438:12 *460:22 1.04779e-05
168 *438:12 *460:30 3.50109e-05
169 *439:18 *460:160 0.000245594
170 *449:32 *460:18 0.000165295
171 *449:32 *460:22 0.000232265
*RES
1 *9484:Z *460:8 9.532 
2 *460:8 *460:14 10.884 
3 *460:14 *460:18 5.488 
4 *460:18 *460:22 8.832 
5 *460:22 *460:30 4.256 
6 *460:30 *9232:A1 5.184 
7 *460:30 *9230:A1 15.248 
8 *460:22 *9271:A1 5.336 
9 *460:18 *9229:A1 9 
10 *460:14 *9225:A1 16.54 
11 *460:8 *460:77 4.484 
12 *460:77 *460:81 5.776 
13 *460:81 *9261:A1 27.576 
14 *460:81 *460:106 1.14 
15 *460:106 *460:110 1.824 
16 *460:110 *9227:A1 10.596 
17 *460:110 *460:123 5.64 
18 *460:123 *460:129 7.692 
19 *460:129 *9224:A1 9 
20 *460:129 *460:150 16.964 
21 *460:150 *460:160 22.604 
22 *460:160 *460:164 10.352 
23 *460:164 *9291:A1 11.66 
24 *460:164 *9128:I 16.828 
25 *460:160 *9301:A1 5.336 
26 *460:150 *9281:A1 4.5 
27 *460:123 *9223:A2 5.184 
28 *460:106 *9228:A1 9.38 
29 *460:77 *9226:A1 13.104 
*END

*D_NET *461 0.0512691
*CONN
*I *9634:A[4] I *D gf180mcu_fd_ip_sram__sram256x8m8wm1
*I *9632:A[4] I *D gf180mcu_fd_ip_sram__sram256x8m8wm1
*I *9657:Z O *D gf180mcu_fd_sc_mcu7t5v0__buf_8
*CAP
1 *9634:A[4] 8.38847e-05
2 *9632:A[4] 0.00595537
3 *9657:Z 0.000884039
4 *461:32 0.0096826
5 *461:30 0.01467
6 *9632:A[4] *9632:A[3] 0
7 *9632:A[4] *463:12 0
8 *9634:A[4] *9634:A[3] 0
9 *461:30 *463:20 0
10 *461:32 *463:20 0
11 *9632:A[6] *9632:A[4] 0.0104772
12 *9632:A[5] *9632:A[4] 0
13 *9634:A[5] *9634:A[4] 0
14 *9663:I *9632:A[4] 0.00138679
15 *332:43 *9632:A[4] 0.0028975
16 *332:45 *9632:A[4] 0.003332
17 *433:10 *9632:A[4] 0.00146539
18 *433:12 *9632:A[4] 9.0262e-05
19 *458:18 *9632:A[4] 0.000343983
20 *458:26 *461:30 0
21 *458:26 *461:32 0
*RES
1 *9657:Z *9632:A[4] 45.078 
2 *9632:A[4] *461:30 46.658 
3 *461:30 *461:32 70.68 
4 *461:32 *9634:A[4] 9.494 
*END

*D_NET *462 0.0394313
*CONN
*I *9635:A[4] I *D gf180mcu_fd_ip_sram__sram256x8m8wm1
*I *9633:A[4] I *D gf180mcu_fd_ip_sram__sram256x8m8wm1
*I *9658:Z O *D gf180mcu_fd_sc_mcu7t5v0__buf_8
*CAP
1 *9635:A[4] 8.38847e-05
2 *9633:A[4] 4.38734e-05
3 *9658:Z 0.00399986
4 *462:30 0.0139595
5 *462:28 0.0146004
6 *462:14 0.00476849
7 *9633:A[4] *9633:A[3] 0
8 *9635:A[4] *9635:A[3] 0
9 *462:14 *464:12 0
10 *462:28 *464:12 0
11 *462:28 *464:26 0
12 *462:30 *464:26 0
13 *462:30 *464:28 0
14 *9364:A1 *462:14 0.00135114
15 *9633:A[5] *9633:A[4] 1.15676e-05
16 *9635:A[5] *9635:A[4] 0
17 *430:10 *462:14 0
18 *430:36 *462:14 0.000156268
19 *459:14 *462:14 0.000193684
20 *459:26 *462:14 3.20368e-06
21 *459:26 *462:28 0.000259498
22 *459:26 *462:30 0
*RES
1 *9658:Z *462:14 43.976 
2 *462:14 *9633:A[4] 9.342 
3 *462:14 *462:28 6.46 
4 *462:28 *462:30 102.6 
5 *462:30 *9635:A[4] 9.494 
*END

*D_NET *463 0.0447497
*CONN
*I *9632:A[3] I *D gf180mcu_fd_ip_sram__sram256x8m8wm1
*I *9634:A[3] I *D gf180mcu_fd_ip_sram__sram256x8m8wm1
*I *9659:Z O *D gf180mcu_fd_sc_mcu7t5v0__buf_4
*CAP
1 *9632:A[3] 8.32257e-05
2 *9634:A[3] 8.38847e-05
3 *9659:Z 0.00190099
4 *463:20 0.0148595
5 *463:18 0.014782
6 *463:12 0.0019906
7 *9272:A3 *463:12 3.32983e-05
8 *9342:A2 *463:12 0.000334883
9 *9344:A1 *463:12 0.000596614
10 *9577:I *463:12 0.000313408
11 *9632:A[4] *9632:A[3] 0
12 *9632:A[4] *463:12 0
13 *9634:A[4] *9634:A[3] 0
14 *9651:I *463:12 0.0060063
15 *9661:I *463:12 0.00276143
16 *9665:I *463:12 0.000834514
17 *189:44 *463:18 8.06713e-05
18 *407:22 *463:18 8.8425e-05
19 *461:30 *463:20 0
20 *461:32 *463:20 0
*RES
1 *9659:Z *463:12 45.724 
2 *463:12 *463:18 9.228 
3 *463:18 *463:20 108.908 
4 *463:20 *9634:A[3] 9.494 
5 *463:12 *9632:A[3] 0.494 
*END

*D_NET *464 0.0436871
*CONN
*I *9635:A[3] I *D gf180mcu_fd_ip_sram__sram256x8m8wm1
*I *9633:A[3] I *D gf180mcu_fd_ip_sram__sram256x8m8wm1
*I *9660:Z O *D gf180mcu_fd_sc_mcu7t5v0__buf_8
*CAP
1 *9635:A[3] 8.38847e-05
2 *9633:A[3] 4.92051e-05
3 *9660:Z 0.000900808
4 *464:28 0.0139595
5 *464:26 0.01472
6 *464:12 0.00179443
7 *9633:A[4] *9633:A[3] 0
8 *9635:A[4] *9635:A[3] 0
9 *258:62 *464:12 0.00449071
10 *457:12 *464:12 0.00768851
11 *462:14 *464:12 0
12 *462:28 *464:12 0
13 *462:28 *464:26 0
14 *462:30 *464:26 0
15 *462:30 *464:28 0
*RES
1 *9660:Z *464:12 39.036 
2 *464:12 *9633:A[3] 9.342 
3 *464:12 *464:26 6.46 
4 *464:26 *464:28 102.6 
5 *464:28 *9635:A[3] 9.494 
*END

*D_NET *465 0.0451553
*CONN
*I *9634:A[2] I *D gf180mcu_fd_ip_sram__sram256x8m8wm1
*I *9632:A[2] I *D gf180mcu_fd_ip_sram__sram256x8m8wm1
*I *9661:Z O *D gf180mcu_fd_sc_mcu7t5v0__buf_8
*CAP
1 *9634:A[2] 0
2 *9632:A[2] 0.00266611
3 *9661:Z 0.00266611
4 *465:25 0.0146243
5 *465:23 0.0146243
6 *9632:A[2] *9632:A[0] 0.00953419
7 *433:18 *9632:A[2] 0.00104024
*RES
1 *9661:Z *9632:A[2] 46.294 
2 *9632:A[2] *465:23 9 
3 *465:23 *465:25 107.844 
4 *465:25 *9634:A[2] 9 
*END

*D_NET *466 0.0467345
*CONN
*I *9635:A[2] I *D gf180mcu_fd_ip_sram__sram256x8m8wm1
*I *9633:A[2] I *D gf180mcu_fd_ip_sram__sram256x8m8wm1
*I *9662:Z O *D gf180mcu_fd_sc_mcu7t5v0__buf_8
*CAP
1 *9635:A[2] 0
2 *9633:A[2] 0
3 *9662:Z 0.00121355
4 *466:34 0.0145586
5 *466:32 0.0145586
6 *466:18 0.00121355
7 *466:18 *9633:D[1] 0.000158119
8 *466:18 *468:22 0.000715188
9 *9360:A1 *466:18 0.000977764
10 *9471:I *466:18 0.00212082
11 *9664:I *466:18 0.000124132
12 *258:53 *466:18 0.000697422
13 *258:62 *466:18 0.00299112
14 *455:18 *466:18 0.00740559
15 *455:30 *466:18 0
*RES
1 *9662:Z *466:18 46.408 
2 *466:18 *9633:A[2] 9 
3 *9633:A[2] *466:32 9 
4 *466:32 *466:34 107.844 
5 *466:34 *9635:A[2] 9 
*END

*D_NET *467 0.0449606
*CONN
*I *9634:A[1] I *D gf180mcu_fd_ip_sram__sram256x8m8wm1
*I *9632:A[1] I *D gf180mcu_fd_ip_sram__sram256x8m8wm1
*I *9663:Z O *D gf180mcu_fd_sc_mcu7t5v0__buf_8
*CAP
1 *9634:A[1] 0
2 *9632:A[1] 0.00260222
3 *9663:Z 0.00260222
4 *467:25 0.0146097
5 *467:23 0.0146097
6 *9632:A[7] *9632:A[1] 0.00958856
7 *332:45 *9632:A[1] 0.000948122
*RES
1 *9663:Z *9632:A[1] 45.078 
2 *9632:A[1] *467:23 9 
3 *467:23 *467:25 107.844 
4 *467:25 *9634:A[1] 9 
*END

*D_NET *468 0.0426644
*CONN
*I *9635:A[1] I *D gf180mcu_fd_ip_sram__sram256x8m8wm1
*I *9633:A[1] I *D gf180mcu_fd_ip_sram__sram256x8m8wm1
*I *9664:Z O *D gf180mcu_fd_sc_mcu7t5v0__buf_8
*CAP
1 *9635:A[1] 0
2 *9633:A[1] 0
3 *9664:Z 0.00200767
4 *468:38 0.0145642
5 *468:36 0.0145642
6 *468:22 0.00200767
7 *468:22 *9358:A1 0.00059733
8 *9360:A1 *468:22 0.000989295
9 *258:53 *468:22 0.00122957
10 *258:62 *468:22 0.000645363
11 *455:18 *468:22 0.00534399
12 *466:18 *468:22 0.000715188
*RES
1 *9664:Z *468:22 47.352 
2 *468:22 *9633:A[1] 9 
3 *9633:A[1] *468:36 9 
4 *468:36 *468:38 107.844 
5 *468:38 *9635:A[1] 9 
*END

*D_NET *469 0.0462398
*CONN
*I *9634:A[0] I *D gf180mcu_fd_ip_sram__sram256x8m8wm1
*I *9632:A[0] I *D gf180mcu_fd_ip_sram__sram256x8m8wm1
*I *9665:Z O *D gf180mcu_fd_sc_mcu7t5v0__buf_8
*CAP
1 *9634:A[0] 0
2 *9632:A[0] 0.00289385
3 *9665:Z 0.00289385
4 *469:25 0.0145952
5 *469:23 0.0145952
6 *9632:A[2] *9632:A[0] 0.00953419
7 *9651:I *9632:A[0] 0.00154217
8 *9661:I *9632:A[0] 0.000185225
9 *433:18 *9632:A[0] 0
*RES
1 *9665:Z *9632:A[0] 46.75 
2 *9632:A[0] *469:23 9 
3 *469:23 *469:25 107.844 
4 *469:25 *9634:A[0] 9 
*END

*D_NET *470 0.0383656
*CONN
*I *9635:A[0] I *D gf180mcu_fd_ip_sram__sram256x8m8wm1
*I *9633:A[0] I *D gf180mcu_fd_ip_sram__sram256x8m8wm1
*I *9666:Z O *D gf180mcu_fd_sc_mcu7t5v0__buf_8
*CAP
1 *9635:A[0] 0
2 *9633:A[0] 0
3 *9666:Z 0.00346072
4 *470:23 0.0145586
5 *470:14 0.0180194
6 *9360:A1 *470:14 1.32071e-05
7 *9642:I *470:14 0.0018424
8 *9654:I *470:14 0
9 *428:8 *470:14 0.000213001
10 *428:53 *470:14 0.000258251
*RES
1 *9666:Z *470:14 44.584 
2 *470:14 *9633:A[0] 9 
3 *470:14 *470:23 107.844 
4 *470:23 *9635:A[0] 9 
*END

*D_NET *471 0.0140924
*CONN
*I *9252:A1 I *D gf180mcu_fd_sc_mcu7t5v0__nand3_1
*I *9389:I0 I *D gf180mcu_fd_sc_mcu7t5v0__mux2_2
*I *9246:A1 I *D gf180mcu_fd_sc_mcu7t5v0__nor2_1
*I *9485:Z O *D gf180mcu_fd_sc_mcu7t5v0__dlyd_1
*CAP
1 *9252:A1 0.000476418
2 *9389:I0 8.46226e-05
3 *9246:A1 0.000193118
4 *9485:Z 0.000424527
5 *471:21 0.000599072
6 *471:10 0.000655677
7 *9246:A1 *9246:A2 0.000341492
8 *9252:A1 *9254:A1 0.000610008
9 *471:10 *475:16 0.00155759
10 tl_o[24] *9252:A1 0.000457008
11 tl_o[50] *471:10 0.00139025
12 tl_o[53] *471:10 0.000284506
13 tl_o[64] *471:10 0
14 *9253:A1 *9252:A1 8.01978e-05
15 *9255:B *9252:A1 1.90464e-05
16 *9282:A1 *9252:A1 1.26386e-05
17 *9282:A2 *9252:A1 8.62869e-05
18 *9282:A2 *471:10 0.000432987
19 *9282:A2 *471:21 0.000711165
20 *9388:A2 *471:10 0.000145096
21 *9389:S *9252:A1 0.000281279
22 *9389:S *471:10 0.000324241
23 *9389:S *471:21 0.000700564
24 *9473:I *9252:A1 0.000192639
25 *9578:I *9252:A1 0.0024144
26 *9580:I *471:10 8.19204e-05
27 *9666:I *9252:A1 0.00023201
28 *308:12 *9246:A1 0.000872153
29 *329:12 *9389:I0 4.47078e-05
30 *375:94 *9389:I0 4.47078e-05
31 *421:79 *471:10 0.000342093
*RES
1 *9485:Z *471:10 16.752 
2 *471:10 *9246:A1 11.508 
3 *471:10 *471:21 1.9 
4 *471:21 *9389:I0 9.608 
5 *471:21 *9252:A1 17.36 
*END

*D_NET *472 0.0179592
*CONN
*I *9251:A1 I *D gf180mcu_fd_sc_mcu7t5v0__nor2_1
*I *9247:A1 I *D gf180mcu_fd_sc_mcu7t5v0__and3_1
*I *9390:I0 I *D gf180mcu_fd_sc_mcu7t5v0__mux2_2
*I *9248:A1 I *D gf180mcu_fd_sc_mcu7t5v0__nand3_1
*I *9486:Z O *D gf180mcu_fd_sc_mcu7t5v0__dlyd_1
*CAP
1 *9251:A1 0.000605796
2 *9247:A1 0.000176932
3 *9390:I0 0.000390248
4 *9248:A1 0.0001446
5 *9486:Z 0.000111016
6 *472:36 0.00094468
7 *472:10 0.000660151
8 *472:6 0.000398269
9 *9247:A1 *9247:A2 0.00213014
10 *9247:A1 *9597:I 0.000930858
11 *9251:A1 *9251:A2 8.51677e-05
12 *9251:A1 *9254:A1 9.50338e-05
13 *9251:A1 *9391:I1 0.0002522
14 *9251:A1 *474:44 6.91439e-05
15 *9251:A1 *495:18 0.00206553
16 *9390:I0 *9597:I 2.40988e-05
17 *472:6 *9283:A1 3.68392e-05
18 *472:10 *9597:I 4.09674e-06
19 *472:36 *9283:A1 0.000159249
20 *472:36 *9597:I 0.00136323
21 tl_o[53] *9247:A1 3.83477e-05
22 *9248:A3 *472:6 5.54296e-05
23 *9252:A3 *9251:A1 0.000554451
24 *9255:A1 *9248:A1 6.01004e-05
25 *9255:A1 *472:10 0.000301536
26 *9255:B *9247:A1 0.0023908
27 *9390:S *9390:I0 1.75557e-05
28 *9408:D *9390:I0 0.00031512
29 *9438:CLK *472:6 0.000149401
30 *9438:CLK *472:36 0.000151925
31 *9444:D *9251:A1 0.000885847
32 *9445:D *9251:A1 0
33 *9572:I *9247:A1 0.00038547
34 *9578:I *9251:A1 5.38563e-06
35 *329:26 *9247:A1 0.000336197
36 *329:26 *472:36 0.000675322
37 *371:22 *9251:A1 1.90639e-05
38 *412:64 *472:10 5.52979e-05
39 *412:79 *9390:I0 9.61914e-05
40 *419:14 *9248:A1 0.000126029
41 *419:14 *9390:I0 2.78329e-05
42 *445:14 *9390:I0 0.000439851
43 *445:14 *472:10 0.000224798
*RES
1 *9486:Z *472:6 5.488 
2 *472:6 *472:10 5.792 
3 *472:10 *9248:A1 9.988 
4 *472:10 *9390:I0 12.192 
5 *472:6 *472:36 9.06 
6 *472:36 *9247:A1 17.892 
7 *472:36 *9251:A1 25.98 
*END

*D_NET *473 0.0149439
*CONN
*I *9254:A1 I *D gf180mcu_fd_sc_mcu7t5v0__nand3_1
*I *9487:Z O *D gf180mcu_fd_sc_mcu7t5v0__dlyd_1
*CAP
1 *9254:A1 0.00224957
2 *9487:Z 0.00224957
3 *9254:A1 *9137:A1 0
4 *9254:A1 *9137:A2 2.73945e-05
5 *9254:A1 *9390:I1 7.84402e-05
6 *9254:A1 *9391:I1 0.000146751
7 *9254:A1 *495:18 0.00237524
8 tl_o[24] *9254:A1 0.0002205
9 tl_o[6] *9254:A1 0.000374126
10 *9251:A1 *9254:A1 9.50338e-05
11 *9252:A1 *9254:A1 0.000610008
12 *9252:A3 *9254:A1 9.88736e-06
13 *9253:A1 *9254:A1 0.00340768
14 *9255:A2 *9254:A1 0.000193933
15 *9262:A2 *9254:A1 2.23598e-06
16 *9282:A1 *9254:A1 0.000337608
17 *9436:CLK *9254:A1 1.53361e-05
18 *9486:I *9254:A1 0.000386421
19 *9578:I *9254:A1 6.94418e-05
20 *9658:I *9254:A1 0.000201549
21 *9666:I *9254:A1 0.00033556
22 *325:10 *9254:A1 0.000343551
23 *371:22 *9254:A1 2.99053e-05
24 *375:94 *9254:A1 0.00110575
25 *380:43 *9254:A1 7.83779e-05
*RES
1 *9487:Z *9254:A1 44.448 
*END

*D_NET *474 0.0127802
*CONN
*I *9251:A2 I *D gf180mcu_fd_sc_mcu7t5v0__nor2_1
*I *9391:I0 I *D gf180mcu_fd_sc_mcu7t5v0__mux2_2
*I *9247:A2 I *D gf180mcu_fd_sc_mcu7t5v0__and3_1
*I *9248:A2 I *D gf180mcu_fd_sc_mcu7t5v0__nand3_1
*I *9488:Z O *D gf180mcu_fd_sc_mcu7t5v0__dlyd_1
*CAP
1 *9251:A2 0.000168933
2 *9391:I0 0
3 *9247:A2 0.000323959
4 *9248:A2 0.000547567
5 *9488:Z 0
6 *474:44 0.00143031
7 *474:19 0.0017501
8 *474:4 0.000712327
9 *9247:A2 *9597:I 0.000195189
10 *9248:A2 *9599:I 0
11 *9251:A2 *495:18 1.49066e-06
12 *474:44 *9391:I1 0.000256974
13 *474:44 *9597:I 0.000309442
14 tl_o[6] *9248:A2 3.31536e-05
15 tl_o[6] *474:19 0.000131994
16 *9186:A1 *9251:A2 0.000260718
17 *9247:A1 *9247:A2 0.00213014
18 *9251:A1 *9251:A2 8.51677e-05
19 *9251:A1 *474:44 6.91439e-05
20 *9253:A1 *474:44 0.000138428
21 *9255:A2 *9247:A2 0.000358653
22 *9391:S *474:44 1.1012e-05
23 *9436:CLK *474:19 0.000622382
24 *9442:CLK *9251:A2 0
25 *9476:I *9247:A2 0.00163733
26 *9476:I *474:44 0.000288238
27 *9499:I *9248:A2 0.00119217
28 *9572:I *9247:A2 3.19219e-05
29 *367:33 *9251:A2 9.34472e-05
*RES
1 *9488:Z *474:4 4.5 
2 *474:4 *9248:A2 19.656 
3 *474:4 *474:19 6.248 
4 *474:19 *9247:A2 16.524 
5 *474:19 *474:44 21.176 
6 *474:44 *9391:I0 4.5 
7 *474:44 *9251:A2 15.02 
*END

*D_NET *475 0.018023
*CONN
*I *9252:A2 I *D gf180mcu_fd_sc_mcu7t5v0__nand3_1
*I *9392:I0 I *D gf180mcu_fd_sc_mcu7t5v0__mux2_2
*I *9246:A2 I *D gf180mcu_fd_sc_mcu7t5v0__nor2_1
*I *9489:Z O *D gf180mcu_fd_sc_mcu7t5v0__dlyd_1
*CAP
1 *9252:A2 0.000809657
2 *9392:I0 2.50935e-05
3 *9246:A2 0.000308931
4 *9489:Z 0.000329283
5 *475:37 0.000896354
6 *475:16 0.000699818
7 *9252:A2 *9138:A3 0.000313936
8 *9252:A2 *9391:I1 0.000479185
9 *9252:A2 *9596:I 0.000478924
10 *9252:A2 *506:20 0.000134113
11 *9252:A2 *602:12 0.00263708
12 *9252:A2 *613:22 0.000132099
13 tl_o[25] *9252:A2 4.47134e-05
14 tl_o[53] *475:16 9.72158e-05
15 tl_o[56] *475:16 2.9536e-05
16 tl_o[58] *475:16 0.000320646
17 tl_o[6] *475:16 0.000158878
18 *9138:A4 *9252:A2 0
19 *9246:A1 *9246:A2 0.000341492
20 *9253:A1 *9252:A2 0.000479185
21 *9263:A2 *475:16 0.000135941
22 *9263:A2 *475:37 0.00103394
23 *9389:S *9246:A2 0.000135941
24 *9473:I *9246:A2 0.000142809
25 *9473:I *9252:A2 0.000251776
26 *9528:I *475:16 0.000269857
27 *9580:I *9246:A2 0.00178875
28 *9584:I *9252:A2 8.15645e-05
29 *295:24 *475:16 0.000142809
30 *295:24 *475:37 0.00101819
31 *308:12 *9246:A2 2.65323e-05
32 *329:12 *9252:A2 0.000559384
33 *329:12 *9392:I0 7.83779e-05
34 *375:94 *9252:A2 0.000130004
35 *375:94 *9392:I0 1.3758e-05
36 *421:41 *475:16 0.000338901
37 *421:54 *475:16 0.000202494
38 *421:79 *9246:A2 0.00076875
39 *421:79 *475:16 0.000629489
40 *471:10 *475:16 0.00155759
*RES
1 *9489:Z *475:16 24.612 
2 *475:16 *9246:A2 23.396 
3 *475:16 *475:37 7.16 
4 *475:37 *9392:I0 4.728 
5 *475:37 *9252:A2 34.128 
*END

*D_NET *476 0.00246775
*CONN
*I *9273:A1 I *D gf180mcu_fd_sc_mcu7t5v0__and2_1
*I *9490:Z O *D gf180mcu_fd_sc_mcu7t5v0__dlyd_1
*CAP
1 *9273:A1 0.00123387
2 *9490:Z 0.00123387
*RES
1 *9490:Z *9273:A1 25.752 
*END

*D_NET *477 0.0025961
*CONN
*I *9274:A1 I *D gf180mcu_fd_sc_mcu7t5v0__and2_1
*I *9491:Z O *D gf180mcu_fd_sc_mcu7t5v0__dlyd_1
*CAP
1 *9274:A1 0.00120052
2 *9491:Z 0.00120052
3 *9274:A1 *9275:A1 0
4 *9492:I *9274:A1 0.000195051
*RES
1 *9491:Z *9274:A1 25.752 
*END

*D_NET *478 0.00159137
*CONN
*I *9275:A1 I *D gf180mcu_fd_sc_mcu7t5v0__and2_1
*I *9492:Z O *D gf180mcu_fd_sc_mcu7t5v0__dlyd_1
*CAP
1 *9275:A1 0.000795686
2 *9492:Z 0.000795686
3 *9274:A1 *9275:A1 0
*RES
1 *9492:Z *9275:A1 13.636 
*END

*D_NET *479 0.00152576
*CONN
*I *9276:A1 I *D gf180mcu_fd_sc_mcu7t5v0__and2_1
*I *9493:Z O *D gf180mcu_fd_sc_mcu7t5v0__dlyd_1
*CAP
1 *9276:A1 0.000762882
2 *9493:Z 0.000762882
*RES
1 *9493:Z *9276:A1 13.408 
*END

*D_NET *480 0.00392377
*CONN
*I *9277:A1 I *D gf180mcu_fd_sc_mcu7t5v0__and2_1
*I *9494:Z O *D gf180mcu_fd_sc_mcu7t5v0__dlyd_1
*CAP
1 *9277:A1 0.00102491
2 *9494:Z 0.00102491
3 *411:12 *9277:A1 0
4 *444:31 *9277:A1 0.00187395
*RES
1 *9494:Z *9277:A1 26.512 
*END

*D_NET *481 0.00200903
*CONN
*I *9278:A1 I *D gf180mcu_fd_sc_mcu7t5v0__and2_1
*I *9495:Z O *D gf180mcu_fd_sc_mcu7t5v0__dlyd_1
*CAP
1 *9278:A1 0.00100451
2 *9495:Z 0.00100451
*RES
1 *9495:Z *9278:A1 14.776 
*END

*D_NET *482 0.00124779
*CONN
*I *9279:A1 I *D gf180mcu_fd_sc_mcu7t5v0__and2_1
*I *9496:Z O *D gf180mcu_fd_sc_mcu7t5v0__dlyd_1
*CAP
1 *9279:A1 0.000623895
2 *9496:Z 0.000623895
3 *449:16 *9279:A1 0
*RES
1 *9496:Z *9279:A1 12.572 
*END

*D_NET *483 0.00440894
*CONN
*I *9280:A1 I *D gf180mcu_fd_sc_mcu7t5v0__and2_1
*I *9497:Z O *D gf180mcu_fd_sc_mcu7t5v0__dlyd_1
*CAP
1 *9280:A1 0.000738419
2 *9497:Z 0.000738419
3 *9280:A1 *9217:A2 1.72881e-05
4 *9280:A1 *9220:A1 0.0011318
5 *9280:A1 *9232:A2 0.000111858
6 *9280:A1 *594:32 0
7 *9280:A1 *594:38 2.01099e-05
8 tl_o[60] *9280:A1 3.30388e-05
9 *9232:A1 *9280:A1 1.20079e-05
10 *9341:I0 *9280:A1 0
11 *9496:I *9280:A1 0.000130165
12 *9574:I *9280:A1 0.000247904
13 *9577:I *9280:A1 2.21675e-05
14 *328:20 *9280:A1 0.000107858
15 *372:18 *9280:A1 1.17512e-05
16 *438:12 *9280:A1 0.000315892
17 *444:31 *9280:A1 0.000689383
18 *460:30 *9280:A1 8.08741e-05
*RES
1 *9497:Z *9280:A1 26.208 
*END

*D_NET *484 0.0143005
*CONN
*I *9254:A2 I *D gf180mcu_fd_sc_mcu7t5v0__nand3_1
*I *9498:Z O *D gf180mcu_fd_sc_mcu7t5v0__dlyd_1
*CAP
1 *9254:A2 0.00142767
2 *9498:Z 0.00142767
3 *9254:A2 *9135:A1 0.000305366
4 *9254:A2 *9591:I 8.07059e-05
5 *9254:A2 *9598:I 0.0014124
6 *9254:A2 *512:16 0.00217793
7 *9254:A2 *594:117 0.000493419
8 *9254:A2 *594:135 0.000140658
9 *9254:A2 *594:146 0.000412073
10 *9254:A2 *594:161 0.00046645
11 tl_o[27] *9254:A2 0
12 tl_o[49] *9254:A2 0.00040294
13 tl_o[56] *9254:A2 0.00061178
14 *9253:A1 *9254:A2 0.000488364
15 *9255:A2 *9254:A2 0.00198976
16 *9263:A2 *9254:A2 9.21733e-05
17 *9263:A3 *9254:A2 0.000181281
18 *9436:D *9254:A2 0.000310083
19 *9439:D *9254:A2 0.000114192
20 *9446:D *9254:A2 0.000169167
21 *9478:I *9254:A2 0.000153787
22 *9488:I *9254:A2 2.49387e-05
23 *9536:I *9254:A2 9.64611e-05
24 *9576:I *9254:A2 7.3227e-05
25 *9579:I *9254:A2 0.000933403
26 *325:10 *9254:A2 2.03987e-05
27 *375:94 *9254:A2 7.82266e-05
28 *380:43 *9254:A2 0.000177992
29 *460:150 *9254:A2 3.79787e-05
*RES
1 *9498:Z *9254:A2 48.964 
*END

*D_NET *485 0.0105947
*CONN
*I *9283:A1 I *D gf180mcu_fd_sc_mcu7t5v0__and2_1
*I *9499:Z O *D gf180mcu_fd_sc_mcu7t5v0__dlyd_1
*CAP
1 *9283:A1 0.000746307
2 *9499:Z 0.000746307
3 *9283:A1 *9347:A1 1.2339e-05
4 tl_o[25] *9283:A1 0.000444428
5 tl_o[58] *9283:A1 0.000292354
6 tl_o[65] *9283:A1 0.000235767
7 *9248:A3 *9283:A1 0.000184412
8 *9385:I0 *9283:A1 0.00103049
9 *9438:CLK *9283:A1 5.79226e-05
10 *9443:D *9283:A1 0.000637235
11 *9443:CLK *9283:A1 1.23559e-05
12 *9475:I *9283:A1 0.000667106
13 *9581:I *9283:A1 0.00180357
14 *9639:I *9283:A1 0.00158352
15 *375:94 *9283:A1 8.40936e-05
16 *380:29 *9283:A1 0.00165006
17 *445:14 *9283:A1 0.000210358
18 *472:6 *9283:A1 3.68392e-05
19 *472:36 *9283:A1 0.000159249
*RES
1 *9499:Z *9283:A1 35.1 
*END

*D_NET *486 0.00162965
*CONN
*I *9284:A1 I *D gf180mcu_fd_sc_mcu7t5v0__and2_1
*I *9500:Z O *D gf180mcu_fd_sc_mcu7t5v0__dlyd_1
*CAP
1 *9284:A1 0.000377967
2 *9500:Z 0.000377967
3 *9284:A1 *9633:D[2] 4.09625e-06
4 *9285:A2 *9284:A1 0
5 *9353:I0 *9284:A1 0.000360951
6 *9411:CLK *9284:A1 0
7 *380:8 *9284:A1 9.57948e-05
8 *418:33 *9284:A1 0.000377606
9 *448:12 *9284:A1 3.52644e-05
*RES
1 *9500:Z *9284:A1 12.192 
*END

*D_NET *487 0.00208571
*CONN
*I *9285:A1 I *D gf180mcu_fd_sc_mcu7t5v0__and2_1
*I *9501:Z O *D gf180mcu_fd_sc_mcu7t5v0__dlyd_1
*CAP
1 *9285:A1 0.000699485
2 *9501:Z 0.000699485
3 *380:152 *9285:A1 0.000468621
4 *418:35 *9285:A1 0.000218118
*RES
1 *9501:Z *9285:A1 23.472 
*END

*D_NET *488 0.00202886
*CONN
*I *9286:A1 I *D gf180mcu_fd_sc_mcu7t5v0__and2_1
*I *9502:Z O *D gf180mcu_fd_sc_mcu7t5v0__dlyd_1
*CAP
1 *9286:A1 0.00101443
2 *9502:Z 0.00101443
*RES
1 *9502:Z *9286:A1 14.624 
*END

*D_NET *489 0.00190826
*CONN
*I *9287:A1 I *D gf180mcu_fd_sc_mcu7t5v0__and2_1
*I *9503:Z O *D gf180mcu_fd_sc_mcu7t5v0__dlyd_1
*CAP
1 *9287:A1 0.000954129
2 *9503:Z 0.000954129
*RES
1 *9503:Z *9287:A1 14.472 
*END

*D_NET *490 0.00148203
*CONN
*I *9288:A1 I *D gf180mcu_fd_sc_mcu7t5v0__and2_1
*I *9504:Z O *D gf180mcu_fd_sc_mcu7t5v0__dlyd_1
*CAP
1 *9288:A1 0.000741013
2 *9504:Z 0.000741013
3 *9288:A1 *9289:A1 0
*RES
1 *9504:Z *9288:A1 13.256 
*END

*D_NET *491 0.0031832
*CONN
*I *9289:A1 I *D gf180mcu_fd_sc_mcu7t5v0__and2_1
*I *9505:Z O *D gf180mcu_fd_sc_mcu7t5v0__dlyd_1
*CAP
1 *9289:A1 0.00109362
2 *9505:Z 0.00109362
3 *9288:A1 *9289:A1 0
4 *9504:I *9289:A1 1.81888e-05
5 *447:45 *9289:A1 0.000977764
*RES
1 *9505:Z *9289:A1 25.524 
*END

*D_NET *492 0.00220871
*CONN
*I *9290:A1 I *D gf180mcu_fd_sc_mcu7t5v0__and2_1
*I *9506:Z O *D gf180mcu_fd_sc_mcu7t5v0__dlyd_1
*CAP
1 *9290:A1 0.00105104
2 *9506:Z 0.00105104
3 *447:45 *9290:A1 0.000106627
*RES
1 *9506:Z *9290:A1 24.384 
*END

*D_NET *493 0.00497352
*CONN
*I *9293:A1 I *D gf180mcu_fd_sc_mcu7t5v0__and2_1
*I *9507:Z O *D gf180mcu_fd_sc_mcu7t5v0__dlyd_1
*CAP
1 *9293:A1 0.00248676
2 *9507:Z 0.00248676
*RES
1 *9507:Z *9293:A1 34.872 
*END

*D_NET *494 0.010606
*CONN
*I *9294:A1 I *D gf180mcu_fd_sc_mcu7t5v0__and2_1
*I *9508:Z O *D gf180mcu_fd_sc_mcu7t5v0__dlyd_1
*CAP
1 *9294:A1 0.00115566
2 *9508:Z 0.00115566
3 *9294:A1 *9295:A1 0
4 *9294:A1 *9296:A1 0
5 *9294:A1 *498:12 0.00751155
6 *9293:A2 *9294:A1 0.000783109
*RES
1 *9508:Z *9294:A1 37 
*END

*D_NET *495 0.0159772
*CONN
*I *9253:A2 I *D gf180mcu_fd_sc_mcu7t5v0__nor2_1
*I *9509:Z O *D gf180mcu_fd_sc_mcu7t5v0__dlyd_1
*CAP
1 *9253:A2 0
2 *9509:Z 0.00172788
3 *495:18 0.00172788
4 *495:18 *9269:A1 0.000477431
5 *495:18 *9633:D[0] 0.000841577
6 *9138:A1 *495:18 0
7 *9251:A1 *495:18 0.00206553
8 *9251:A2 *495:18 1.49066e-06
9 *9252:A3 *495:18 0.000131143
10 *9254:A1 *495:18 0.00237524
11 *9255:A1 *495:18 0.000238829
12 *9444:D *495:18 6.97802e-05
13 *9471:I *495:18 0.00570499
14 *9664:I *495:18 0.000306971
15 *367:33 *495:18 6.31678e-05
16 *412:64 *495:18 0.000245285
*RES
1 *9509:Z *495:18 47.808 
2 *495:18 *9253:A2 4.5 
*END

*D_NET *496 0.0065091
*CONN
*I *9295:A1 I *D gf180mcu_fd_sc_mcu7t5v0__and2_1
*I *9510:Z O *D gf180mcu_fd_sc_mcu7t5v0__dlyd_1
*CAP
1 *9295:A1 0.00287402
2 *9510:Z 0.00287402
3 *9295:A1 *9634:D[2] 9.51843e-05
4 *9295:A1 *9634:D[0] 0.000636209
5 *9294:A1 *9295:A1 0
6 *330:60 *9295:A1 2.96621e-05
*RES
1 *9510:Z *9295:A1 40.344 
*END

*D_NET *497 0.0114223
*CONN
*I *9296:A1 I *D gf180mcu_fd_sc_mcu7t5v0__and2_1
*I *9511:Z O *D gf180mcu_fd_sc_mcu7t5v0__dlyd_1
*CAP
1 *9296:A1 0.00280455
2 *9511:Z 0.00280455
3 *9296:A1 *9147:A1 0.0011284
4 *9296:A1 *9634:D[1] 0.000112495
5 *9293:A2 *9296:A1 0.000603996
6 *9294:A1 *9296:A1 0
7 *330:60 *9296:A1 0.00392806
8 *330:64 *9296:A1 4.02664e-05
*RES
1 *9511:Z *9296:A1 48.096 
*END

*D_NET *498 0.0375191
*CONN
*I *9297:A1 I *D gf180mcu_fd_sc_mcu7t5v0__and2_1
*I *9512:Z O *D gf180mcu_fd_sc_mcu7t5v0__dlyd_1
*CAP
1 *9297:A1 0.000165016
2 *9512:Z 0.000789162
3 *498:12 0.0073305
4 *498:10 0.00795464
5 *498:12 *9151:A1 0.000218118
6 *498:12 *9155:A1 0
7 *498:12 *9159:A1 0.000251216
8 *498:12 *9634:D[3] 0.00797655
9 *498:12 *9634:D[2] 0.000476025
10 *498:12 *9634:D[1] 0.000811325
11 *9293:A2 *498:12 3.03414e-05
12 *9294:A1 *498:12 0.00751155
13 *330:44 *9297:A1 2.96621e-05
14 *330:46 *498:12 0.00385123
15 *330:64 *498:12 0.000123763
*RES
1 *9512:Z *498:10 13.56 
2 *498:10 *498:12 86.26 
3 *498:12 *9297:A1 9.836 
*END

*D_NET *499 0.0300179
*CONN
*I *9298:A1 I *D gf180mcu_fd_sc_mcu7t5v0__and2_1
*I *9513:Z O *D gf180mcu_fd_sc_mcu7t5v0__dlyd_1
*CAP
1 *9298:A1 0
2 *9513:Z 0.00010313
3 *499:12 0.0149058
4 *499:10 0.0150089
*RES
1 *9513:Z *499:10 14.184 
2 *499:10 *499:12 110.276 
3 *499:12 *9298:A1 13.5 
*END

*D_NET *500 0.032431
*CONN
*I *9299:A1 I *D gf180mcu_fd_sc_mcu7t5v0__and2_1
*I *9514:Z O *D gf180mcu_fd_sc_mcu7t5v0__dlyd_1
*CAP
1 *9299:A1 0.000160396
2 *9514:Z 0
3 *500:10 0.0151991
4 *500:8 0.0150387
5 *9299:A1 *556:10 0.000539951
6 *330:10 *9299:A1 0.0014928
*RES
1 *9514:Z *500:8 13.5 
2 *500:8 *500:10 111.34 
3 *500:10 *9299:A1 17.072 
*END

*D_NET *501 0.0307676
*CONN
*I *9300:A1 I *D gf180mcu_fd_sc_mcu7t5v0__and2_1
*I *9515:Z O *D gf180mcu_fd_sc_mcu7t5v0__dlyd_1
*CAP
1 *9300:A1 0.000289047
2 *9515:Z 0.000536708
3 *501:12 0.0148471
4 *501:10 0.0150948
*RES
1 *9515:Z *501:10 17.376 
2 *501:10 *501:12 98.572 
3 *501:12 *9300:A1 15.552 
*END

*D_NET *502 0.0322386
*CONN
*I *9303:A1 I *D gf180mcu_fd_sc_mcu7t5v0__and2_1
*I *9516:Z O *D gf180mcu_fd_sc_mcu7t5v0__dlyd_1
*CAP
1 *9303:A1 0.00122384
2 *9516:Z 0.000998464
3 *502:12 0.015104
4 *502:10 0.0148786
5 *9516:I *502:10 3.37485e-05
*RES
1 *9516:Z *502:10 20.872 
2 *502:10 *502:12 93.86 
3 *502:12 *9303:A1 30.328 
*END

*D_NET *503 0.0457781
*CONN
*I *9304:A1 I *D gf180mcu_fd_sc_mcu7t5v0__and2_1
*I *9517:Z O *D gf180mcu_fd_sc_mcu7t5v0__dlyd_1
*CAP
1 *9304:A1 4.84814e-05
2 *9517:Z 0.00015444
3 *503:12 0.0218569
4 *503:10 0.0219628
5 *503:12 *578:13 0.00161474
6 *331:21 *9304:A1 0.000140696
*RES
1 *9517:Z *503:10 14.184 
2 *503:10 *503:12 111.34 
3 *503:12 *9304:A1 13.88 
*END

*D_NET *504 0.0298585
*CONN
*I *9305:A1 I *D gf180mcu_fd_sc_mcu7t5v0__and2_1
*I *9518:Z O *D gf180mcu_fd_sc_mcu7t5v0__dlyd_1
*CAP
1 *9305:A1 0
2 *9518:Z 6.18431e-05
3 *504:12 0.0148674
4 *504:10 0.0149293
*RES
1 *9518:Z *504:10 13.88 
2 *504:10 *504:12 109.212 
3 *504:12 *9305:A1 13.5 
*END

*D_NET *505 0.0436475
*CONN
*I *9306:A1 I *D gf180mcu_fd_sc_mcu7t5v0__and2_1
*I *9519:Z O *D gf180mcu_fd_sc_mcu7t5v0__dlyd_1
*CAP
1 *9306:A1 3.66658e-05
2 *9519:Z 0.000705234
3 *505:12 0.00540959
4 *505:10 0.00607816
5 *9306:A1 *9635:D[3] 5.76373e-06
6 *505:12 *9208:A1 0
7 *505:12 *9308:A1 0.0081007
8 *505:12 *9635:D[6] 0.00504711
9 *505:12 *9635:D[5] 0.00526897
10 *505:12 *9635:D[4] 0.00240389
11 *505:12 *507:14 0
12 *9198:A1 *505:12 0.00104128
13 *9310:A2 *505:12 0.00370928
14 *331:50 *505:12 0.000247064
15 *331:52 *505:12 0.00545909
16 *331:67 *505:12 5.96894e-05
17 *331:80 *505:12 7.50415e-05
*RES
1 *9519:Z *505:10 12.952 
2 *505:10 *505:12 86.412 
3 *505:12 *9306:A1 9.228 
*END

*D_NET *506 0.0167224
*CONN
*I *9449:RN I *D gf180mcu_fd_sc_mcu7t5v0__dffrnq_1
*I *9451:RN I *D gf180mcu_fd_sc_mcu7t5v0__dffrnq_1
*I *9450:RN I *D gf180mcu_fd_sc_mcu7t5v0__dffrnq_1
*I *9448:RN I *D gf180mcu_fd_sc_mcu7t5v0__dffrnq_1
*I *9520:Z O *D gf180mcu_fd_sc_mcu7t5v0__dlyd_1
*CAP
1 *9449:RN 0.000509669
2 *9451:RN 0.00105108
3 *9450:RN 0
4 *9448:RN 0
5 *9520:Z 0.00143065
6 *506:33 0.000765192
7 *506:20 0.00165443
8 *9449:RN *9141:A1 0
9 *9449:RN *648:8 0.000495697
10 *9449:RN *648:10 0
11 *9451:RN *9375:I1 0.000387773
12 *9451:RN *614:23 8.71765e-05
13 *506:20 *602:12 2.33477e-05
14 *9138:A4 *506:20 0.000157817
15 *9249:A2 *506:20 0.000353676
16 *9250:B *506:20 3.60574e-06
17 *9252:A2 *506:20 0.000134113
18 *9254:A3 *506:20 0.000225699
19 *9262:A1 *506:20 0.000219002
20 *9262:A2 *506:20 0.00105677
21 *9262:B *506:20 1.31249e-05
22 *9263:A2 *506:20 4.20385e-05
23 *9265:A2 *506:20 0.000172832
24 *9265:A2 *506:33 0.000124318
25 *9265:A3 *506:20 0.000154451
26 *9265:A3 *506:33 0.000255714
27 *9312:A1 *9451:RN 0.000379283
28 *9375:S *9449:RN 0.000345749
29 *9471:I *506:20 0.00037861
30 *9473:I *506:20 0.000379934
31 *9478:I *506:20 0.00029445
32 *9573:I *506:20 0.00131295
33 *256:12 *9451:RN 0.000139022
34 *256:12 *506:33 0.00013397
35 *327:13 *9449:RN 0.000495697
36 *327:17 *9449:RN 7.54435e-05
37 *366:16 *506:20 0.00020108
38 *367:33 *506:20 0.000396904
39 *375:72 *9449:RN 0.000200232
40 *375:72 *9451:RN 0.000674905
41 *375:72 *506:20 0.000166527
42 *375:72 *506:33 0.000145646
43 *407:20 *9451:RN 2.22758e-05
44 *407:57 *9449:RN 0.000162656
45 *407:57 *9451:RN 0.00126616
46 *438:119 *506:20 0.0002327
*RES
1 *9520:Z *506:20 38.612 
2 *506:20 *9448:RN 4.5 
3 *506:20 *506:33 2.888 
4 *506:33 *9450:RN 4.5 
5 *506:33 *9451:RN 21.024 
6 *9451:RN *9449:RN 23.624 
*END

*D_NET *507 0.011037
*CONN
*I *9307:A1 I *D gf180mcu_fd_sc_mcu7t5v0__and2_1
*I *9521:Z O *D gf180mcu_fd_sc_mcu7t5v0__dlyd_1
*CAP
1 *9307:A1 0
2 *9521:Z 0.00508799
3 *507:14 0.00508799
4 *507:14 *9204:A1 0.000294566
5 *507:14 *9310:A1 0
6 *507:14 *9635:D[6] 0.00056651
7 *9310:A2 *507:14 0
8 *331:80 *507:14 0
9 *505:12 *507:14 0
*RES
1 *9521:Z *507:14 47.32 
2 *507:14 *9307:A1 4.5 
*END

*D_NET *508 0.014487
*CONN
*I *9308:A1 I *D gf180mcu_fd_sc_mcu7t5v0__and2_1
*I *9522:Z O *D gf180mcu_fd_sc_mcu7t5v0__dlyd_1
*CAP
1 *9308:A1 0.000859624
2 *9522:Z 0.000859624
3 *9308:A1 *9309:A1 0.00466705
4 *505:12 *9308:A1 0.0081007
*RES
1 *9522:Z *9308:A1 43.612 
*END

*D_NET *509 0.00820329
*CONN
*I *9309:A1 I *D gf180mcu_fd_sc_mcu7t5v0__and2_1
*I *9523:Z O *D gf180mcu_fd_sc_mcu7t5v0__dlyd_1
*CAP
1 *9309:A1 0.00176812
2 *9523:Z 0.00176812
3 *9309:A1 *9208:A1 0
4 *9308:A1 *9309:A1 0.00466705
*RES
1 *9523:Z *9309:A1 40.724 
*END

*D_NET *510 0.0043267
*CONN
*I *9310:A1 I *D gf180mcu_fd_sc_mcu7t5v0__and2_1
*I *9524:Z O *D gf180mcu_fd_sc_mcu7t5v0__dlyd_1
*CAP
1 *9310:A1 0.00216335
2 *9524:Z 0.00216335
3 *507:14 *9310:A1 0
*RES
1 *9524:Z *9310:A1 32.592 
*END

*D_NET *511 0.0268044
*CONN
*I *9239:A2 I *D gf180mcu_fd_sc_mcu7t5v0__aoi22_1
*I *9259:B2 I *D gf180mcu_fd_sc_mcu7t5v0__oai22_1
*I *9374:I1 I *D gf180mcu_fd_sc_mcu7t5v0__mux2_2
*I *9244:A2 I *D gf180mcu_fd_sc_mcu7t5v0__oai31_1
*I *9271:A2 I *D gf180mcu_fd_sc_mcu7t5v0__nand2_1
*I *9525:Z O *D gf180mcu_fd_sc_mcu7t5v0__dlyd_1
*CAP
1 *9239:A2 0.000144107
2 *9259:B2 0.000607977
3 *9374:I1 0.00138869
4 *9244:A2 0
5 *9271:A2 0.000962203
6 *9525:Z 2.01693e-05
7 *511:55 0.000798679
8 *511:31 0.00172057
9 *511:23 0.000456012
10 *511:8 0.00105991
11 *9239:A2 *512:26 0.00017636
12 *9239:A2 *530:22 0.000283254
13 *9259:B2 *516:18 0.00107101
14 *9259:B2 *516:48 0.000523547
15 *9374:I1 *9231:A2 0.000378833
16 *9374:I1 *9243:A1 0.000145228
17 *9374:I1 *514:21 5.73319e-05
18 *9374:I1 *514:48 0.000537544
19 *9374:I1 *514:69 0.000707755
20 *9374:I1 *516:18 4.15129e-05
21 *511:8 *9226:A2 3.15134e-05
22 *511:31 *9244:A1 0.000350607
23 *511:31 *512:34 3.84317e-05
24 *511:31 *514:21 1.18988e-05
25 *511:31 *516:18 0.000425433
26 *511:55 *516:18 0.000232746
27 tl_o[0] *9259:B2 0.000240496
28 tl_o[8] *9374:I1 2.35525e-05
29 *9239:B2 *9239:A2 0.00153149
30 *9239:B2 *9271:A2 0.00393373
31 *9239:B2 *511:23 0.000214523
32 *9239:B2 *511:31 9.50338e-05
33 *9259:B1 *9259:B2 3.91978e-05
34 *9271:A1 *9271:A2 0.00018513
35 *9340:A1 *9271:A2 0
36 *9345:I0 *9259:B2 0.00189031
37 *9395:B *511:8 7.3227e-05
38 *9453:I *9374:I1 2.6126e-05
39 *9472:I *9239:A2 0.00153835
40 *9582:I *9374:I1 3.71927e-05
41 *9646:I *9374:I1 0
42 *248:8 *9239:A2 4.21224e-05
43 *402:26 *9271:A2 0.000197178
44 *407:20 *9374:I1 0
45 *408:14 *9259:B2 0.000104712
46 *408:25 *9259:B2 0.000212629
47 *408:25 *9374:I1 0.00015562
48 *408:25 *511:55 8.96818e-05
49 *416:14 *9259:B2 0.000177796
50 *424:8 *9271:A2 2.32864e-05
51 *438:12 *9271:A2 0.000606165
52 *438:29 *9271:A2 0.0013771
53 *438:29 *511:23 0.000723736
54 *438:29 *511:31 9.81173e-05
55 *449:32 *9271:A2 2.3367e-05
56 *460:18 *9271:A2 0.000190791
57 *460:22 *9271:A2 0.000782467
*RES
1 *9525:Z *511:8 9.228 
2 *511:8 *9271:A2 25.34 
3 *511:8 *511:23 1.9 
4 *511:23 *511:31 8.072 
5 *511:31 *9244:A2 4.5 
6 *511:31 *9374:I1 25.28 
7 *511:23 *511:55 5.184 
8 *511:55 *9259:B2 13.848 
9 *511:55 *9239:A2 18.364 
*END

*D_NET *512 0.0379066
*CONN
*I *9375:I1 I *D gf180mcu_fd_sc_mcu7t5v0__mux2_2
*I *9281:A2 I *D gf180mcu_fd_sc_mcu7t5v0__nand2_1
*I *9239:A1 I *D gf180mcu_fd_sc_mcu7t5v0__aoi22_1
*I *9244:A1 I *D gf180mcu_fd_sc_mcu7t5v0__oai31_1
*I *9256:A2 I *D gf180mcu_fd_sc_mcu7t5v0__nor2_1
*I *9258:A1 I *D gf180mcu_fd_sc_mcu7t5v0__aoi22_1
*I *9526:Z O *D gf180mcu_fd_sc_mcu7t5v0__dlyd_1
*CAP
1 *9375:I1 0.000785862
2 *9281:A2 3.66103e-06
3 *9239:A1 0
4 *9244:A1 0.000229857
5 *9256:A2 0
6 *9258:A1 0.000669544
7 *9526:Z 0.000772978
8 *512:94 0.00163442
9 *512:34 0.00102863
10 *512:32 0.000752697
11 *512:26 0.000585499
12 *512:16 0.00203962
13 *9244:A1 *514:21 0.000360494
14 *9258:A1 *9259:A2 0.0015096
15 *9258:A1 *513:24 0.000432994
16 *9375:I1 *9132:B 7.2647e-05
17 *9375:I1 *9139:A1 0.000398787
18 *9375:I1 *9547:I 0.000258197
19 *9375:I1 *614:10 0.000228415
20 *9375:I1 *614:23 0.000336522
21 *9375:I1 *687:8 0.000231978
22 *512:16 *9378:I0 0.000950217
23 *512:34 *9259:A2 0.00072673
24 *512:34 *514:21 0.000519769
25 *512:34 *516:18 0.000100797
26 *512:94 *9269:A1 0.00011627
27 *512:94 *9269:A2 0.000185116
28 *512:94 *603:25 0.000232746
29 *512:94 *686:10 0.000362547
30 tl_o[14] *9258:A1 0.000462809
31 *9138:A1 *512:94 3.88062e-05
32 *9235:A2 *512:94 4.04916e-05
33 *9239:A2 *512:26 0.00017636
34 *9239:B2 *512:26 0.000243614
35 *9254:A2 *512:16 0.00217793
36 *9263:A1 *512:26 0.000442133
37 *9263:A1 *512:94 0.000142809
38 *9263:A2 *512:16 0.000689855
39 *9265:A1 *512:94 1.76797e-05
40 *9267:A3 *9375:I1 2.9378e-06
41 *9282:A2 *512:26 6.3293e-05
42 *9312:A4 *512:94 6.05076e-05
43 *9388:B *512:94 0.000342892
44 *9393:S *512:94 0.000141543
45 *9451:RN *9375:I1 0.000387773
46 *9472:I *512:26 0.000432477
47 *9473:I *512:26 0.000193421
48 *9478:I *512:16 0.000607656
49 *9480:I *9258:A1 0.000117421
50 *9499:I *512:16 4.75362e-05
51 *9525:I *9258:A1 0.000816441
52 *9525:I *512:34 0.000255669
53 *9526:I *512:16 0.00260834
54 *9529:I *9258:A1 2.3061e-05
55 *9540:I *512:16 0.000611956
56 *9576:I *512:16 7.88136e-05
57 *9580:I *512:94 8.41027e-06
58 *9581:I *512:16 7.88136e-05
59 *9640:I *512:16 5.50406e-05
60 *9657:I *512:32 0.000113906
61 *9666:I *512:26 0.000131989
62 *3:40 *9258:A1 0.000267084
63 *248:8 *512:26 0.000169167
64 *249:16 *9375:I1 0.000112428
65 *256:12 *9375:I1 0.00149575
66 *258:20 *512:94 0.000172326
67 *281:16 *9281:A2 2.74753e-05
68 *281:16 *9375:I1 0.000142251
69 *281:16 *512:94 0.000259812
70 *299:16 *9375:I1 0
71 *375:72 *9375:I1 4.9346e-05
72 *375:74 *512:32 0.000568826
73 *393:14 *9258:A1 4.40942e-05
74 *412:10 *9258:A1 0.000905848
75 *412:31 *9258:A1 0.000268954
76 *412:45 *512:16 2.92344e-05
77 *412:64 *512:16 4.83913e-05
78 *438:29 *512:32 0.00126467
79 *438:125 *512:26 0.000654445
80 *438:125 *512:94 0.000225767
81 *449:32 *512:26 0.000288914
82 *449:116 *512:26 0.000188292
83 *449:129 *512:26 0.00190606
84 *460:150 *512:94 0.000666516
85 *460:160 *9375:I1 0.000537426
86 *460:160 *512:94 8.55327e-05
87 *511:31 *9244:A1 0.000350607
88 *511:31 *512:34 3.84317e-05
*RES
1 *9526:Z *512:16 32.06 
2 *512:16 *512:26 13.012 
3 *512:26 *512:32 12.42 
4 *512:32 *512:34 4.18 
5 *512:34 *9258:A1 32.38 
6 *512:34 *9256:A2 4.5 
7 *512:32 *9244:A1 7.084 
8 *512:26 *9239:A1 4.5 
9 *512:16 *512:94 22.544 
10 *512:94 *9281:A2 4.652 
11 *512:94 *9375:I1 24.672 
*END

*D_NET *513 0.0230824
*CONN
*I *9376:I1 I *D gf180mcu_fd_sc_mcu7t5v0__mux2_2
*I *9260:A1 I *D gf180mcu_fd_sc_mcu7t5v0__oai21_1
*I *9291:A2 I *D gf180mcu_fd_sc_mcu7t5v0__nand2_2
*I *9242:A2 I *D gf180mcu_fd_sc_mcu7t5v0__nor2_1
*I *9241:A2 I *D gf180mcu_fd_sc_mcu7t5v0__aoi22_1
*I *9527:Z O *D gf180mcu_fd_sc_mcu7t5v0__dlyd_1
*CAP
1 *9376:I1 0.000170831
2 *9260:A1 2.20019e-05
3 *9291:A2 0.00126037
4 *9242:A2 0
5 *9241:A2 0
6 *9527:Z 0.00176072
7 *513:49 0.00167433
8 *513:37 0.000799351
9 *513:24 0.00195329
10 *9260:A1 *9612:I 8.04285e-05
11 *9291:A2 *514:48 0.000142185
12 *9376:I1 *9376:I0 0
13 *513:24 *9241:A1 7.83779e-05
14 *513:24 *9257:A1 4.20914e-05
15 *513:37 *9243:A1 0.000203956
16 *513:37 *9260:B 0.000101413
17 *513:37 *9612:I 7.6798e-06
18 *513:49 *9260:B 8.62869e-05
19 *513:49 *9311:A2 0.000153252
20 tl_o[8] *9291:A2 0.000307335
21 tl_o[8] *513:49 0.00020108
22 *9234:B *513:24 0.000138153
23 *9241:B1 *513:24 7.45328e-07
24 *9244:B *513:37 0.000216092
25 *9244:B *513:49 2.23783e-05
26 *9245:A1 *513:24 0.000301131
27 *9245:A2 *513:24 4.15726e-05
28 *9245:B *513:24 2.44356e-05
29 *9257:A2 *513:24 8.67139e-05
30 *9257:B1 *513:24 2.96977e-05
31 *9257:B1 *513:37 1.97747e-05
32 *9258:A1 *513:24 0.000432994
33 *9260:A2 *9260:A1 2.49387e-05
34 *9260:A2 *513:24 0.000346299
35 *9261:A1 *513:24 0.000682608
36 *9261:A4 *513:24 0.00269464
37 *9261:A4 *513:49 7.95976e-05
38 *9376:S *9376:I1 7.36325e-05
39 *9434:D *513:24 0.00183967
40 *9470:I *513:24 0.000365636
41 *9480:I *513:24 7.98484e-05
42 *9538:I *513:24 0
43 *3:50 *9291:A2 0.000115957
44 *3:50 *9376:I1 0
45 *3:50 *513:24 0.000670782
46 *3:50 *513:49 8.95196e-05
47 *191:8 *9376:I1 6.77492e-05
48 *296:14 *513:37 1.88346e-05
49 *304:18 *513:37 6.36599e-06
50 *332:18 *513:37 2.34305e-05
51 *332:18 *513:49 1.33951e-05
52 *378:182 *9291:A2 0.00415589
53 *393:14 *513:24 0.000692027
54 *407:20 *513:49 1.85653e-05
55 *408:14 *513:24 0.000614667
56 *416:14 *513:24 4.96589e-05
*RES
1 *9527:Z *513:24 45.452 
2 *513:24 *9241:A2 4.5 
3 *513:24 *513:37 6.4 
4 *513:37 *513:49 17.376 
5 *513:49 *9242:A2 4.5 
6 *513:49 *9291:A2 35.42 
7 *513:37 *9260:A1 9.228 
8 *9291:A2 *9376:I1 10.368 
*END

*D_NET *514 0.0299993
*CONN
*I *9301:A2 I *D gf180mcu_fd_sc_mcu7t5v0__nand2_2
*I *9377:I1 I *D gf180mcu_fd_sc_mcu7t5v0__mux2_2
*I *9242:A1 I *D gf180mcu_fd_sc_mcu7t5v0__nor2_1
*I *9241:A1 I *D gf180mcu_fd_sc_mcu7t5v0__aoi22_1
*I *9256:A1 I *D gf180mcu_fd_sc_mcu7t5v0__nor2_1
*I *9528:Z O *D gf180mcu_fd_sc_mcu7t5v0__dlyd_1
*CAP
1 *9301:A2 0.00045889
2 *9377:I1 0
3 *9242:A1 0
4 *9241:A1 0.000161
5 *9256:A1 0
6 *9528:Z 0.00207548
7 *514:69 0.00199768
8 *514:48 0.00198447
9 *514:21 0.00128576
10 *514:14 0.00275456
11 *9241:A1 *9233:A1 5.44e-05
12 *9241:A1 *9243:A1 2.94765e-05
13 *9241:A1 *9612:I 1.76898e-05
14 *9301:A2 *9377:I0 2.05156e-05
15 *9301:A2 *648:89 0.000146738
16 *514:14 *9215:A1 0.000163276
17 *514:14 *9387:A1 0.00302965
18 *514:48 *9233:A1 0.000427638
19 *514:69 *9313:A2 0.000106097
20 tl_o[8] *514:14 0.000203749
21 tl_o[8] *514:21 0.00105183
22 tl_o[8] *514:48 0.000530464
23 *9130:I *514:14 8.85716e-05
24 *9241:B1 *9241:A1 0.000142801
25 *9241:B2 *9241:A1 0.000596131
26 *9244:A1 *514:21 0.000360494
27 *9244:B *514:21 0.000239772
28 *9244:B *514:48 0.000190037
29 *9245:A2 *9241:A1 2.6126e-05
30 *9248:A3 *514:14 0.000842782
31 *9255:A2 *514:14 6.65506e-05
32 *9257:B1 *9241:A1 0.000251804
33 *9260:A2 *9241:A1 2.63924e-05
34 *9291:A1 *514:69 0.000345227
35 *9291:A2 *514:48 0.000142185
36 *9301:A1 *9301:A2 0.000121764
37 *9374:I1 *514:21 5.73319e-05
38 *9374:I1 *514:48 0.000537544
39 *9374:I1 *514:69 0.000707755
40 *9374:S *514:69 0.00246583
41 *9376:S *514:69 8.38119e-05
42 *9377:S *9301:A2 7.2647e-05
43 *9384:I0 *514:14 0.000192034
44 *9396:D *514:69 7.01996e-05
45 *9432:D *514:14 7.36855e-05
46 *9474:I *514:14 2.7675e-05
47 *9476:I *514:14 0.000521211
48 *9525:I *514:14 0.00048092
49 *9525:I *514:21 0.00027755
50 *9532:I *514:14 0.000113354
51 *9536:I *514:14 0.000698686
52 *9540:I *514:14 0.000135201
53 *9581:I *514:14 2.49387e-05
54 *9582:I *514:69 2.6126e-05
55 *3:40 *514:14 0.000143052
56 *3:50 *514:48 1.65939e-05
57 *3:50 *514:69 0
58 *327:17 *9301:A2 0
59 *327:17 *514:69 0
60 *332:18 *514:48 0.000206341
61 *332:18 *514:69 0.000386575
62 *367:33 *9241:A1 4.69874e-05
63 *378:182 *514:48 0.000728242
64 *402:26 *514:48 0.000199473
65 *420:14 *514:14 0.000175388
66 *421:41 *514:14 0.000132183
67 *438:72 *514:69 1.70717e-05
68 *460:160 *9301:A2 0.000201947
69 *460:164 *9301:A2 0.00034088
70 *460:164 *514:69 0.000288071
71 *511:31 *514:21 1.18988e-05
72 *512:34 *514:21 0.000519769
73 *513:24 *9241:A1 7.83779e-05
*RES
1 *9528:Z *514:14 33.64 
2 *514:14 *9256:A1 4.5 
3 *514:14 *514:21 7.676 
4 *514:21 *9241:A1 15.932 
5 *514:21 *514:48 19.884 
6 *514:48 *9242:A1 9 
7 *514:48 *514:69 25.188 
8 *514:69 *9377:I1 9 
9 *514:69 *9301:A2 13.408 
*END

*D_NET *515 0.014389
*CONN
*I *9260:B I *D gf180mcu_fd_sc_mcu7t5v0__oai21_1
*I *9257:A1 I *D gf180mcu_fd_sc_mcu7t5v0__oai32_1
*I *9259:A2 I *D gf180mcu_fd_sc_mcu7t5v0__oai22_1
*I *9529:Z O *D gf180mcu_fd_sc_mcu7t5v0__dlyd_1
*CAP
1 *9260:B 0.000563232
2 *9257:A1 0.00011976
3 *9259:A2 0.000388171
4 *9529:Z 8.00003e-05
5 *515:25 0.00079617
6 *515:8 0.000581349
7 *9259:A2 *516:18 0.000135018
8 *9259:A2 *516:48 0.00220571
9 *9260:B *9612:I 0.000222575
10 *515:8 *530:22 8.1274e-05
11 *515:25 *530:22 0.0001807
12 *9244:B *9260:B 0.000222042
13 *9245:A3 *9260:B 7.83779e-05
14 *9257:B1 *9257:A1 4.56528e-05
15 *9257:B1 *9260:B 0.00103282
16 *9258:A1 *9259:A2 0.0015096
17 *9260:A2 *9260:B 0.000352105
18 *9261:A1 *9257:A1 0.000228565
19 *9345:I0 *515:8 0.000678167
20 *9525:I *9257:A1 0.000508133
21 *9525:I *9259:A2 0.00034952
22 *9525:I *9260:B 0.000845402
23 *3:50 *9257:A1 7.30752e-05
24 *3:50 *9260:B 0.000558422
25 *412:10 *9259:A2 3.00299e-05
26 *460:81 *515:8 0.000943322
27 *460:81 *515:25 0.000623325
28 *512:34 *9259:A2 0.00072673
29 *513:24 *9257:A1 4.20914e-05
30 *513:37 *9260:B 0.000101413
31 *513:49 *9260:B 8.62869e-05
*RES
1 *9529:Z *515:8 11.508 
2 *515:8 *9259:A2 17.74 
3 *515:8 *515:25 6.248 
4 *515:25 *9257:A1 6.248 
5 *515:25 *9260:B 20.872 
*END

*D_NET *516 0.0246057
*CONN
*I *9240:A1 I *D gf180mcu_fd_sc_mcu7t5v0__nand2_1
*I *9129:I I *D gf180mcu_fd_sc_mcu7t5v0__clkinv_1
*I *9257:B2 I *D gf180mcu_fd_sc_mcu7t5v0__oai32_1
*I *9259:A1 I *D gf180mcu_fd_sc_mcu7t5v0__oai22_1
*I *9258:A2 I *D gf180mcu_fd_sc_mcu7t5v0__aoi22_1
*I *9243:A1 I *D gf180mcu_fd_sc_mcu7t5v0__nand2_1
*I *9244:A3 I *D gf180mcu_fd_sc_mcu7t5v0__oai31_1
*I *9530:Z O *D gf180mcu_fd_sc_mcu7t5v0__dlyd_1
*CAP
1 *9240:A1 0.000137449
2 *9129:I 0.000100654
3 *9257:B2 0.000191954
4 *9259:A1 0
5 *9258:A2 0.000177155
6 *9243:A1 0.000301145
7 *9244:A3 0
8 *9530:Z 0.000592179
9 *516:79 0.00041484
10 *516:48 0.000608088
11 *516:40 0.000645552
12 *516:18 0.000931295
13 *516:14 0.00096103
14 *516:10 0.00107713
15 *9240:A1 *9233:A1 0.000337262
16 *516:10 *9232:A2 7.5315e-05
17 *516:10 *9233:A1 0.000352175
18 *516:14 *9232:A2 4.51089e-05
19 *516:14 *9592:I 0
20 *516:79 *9232:A2 0.000144181
21 *516:79 *9233:A1 0.000709313
22 *516:79 *530:22 4.58601e-06
23 tl_o[22] *516:10 4.02962e-05
24 tl_o[51] *516:10 0.000433885
25 *9238:A2 *9240:A1 3.73535e-05
26 *9239:B2 *9240:A1 0.000371749
27 *9241:A1 *9243:A1 2.94765e-05
28 *9241:B1 *9243:A1 0.000321946
29 *9241:B2 *9240:A1 7.83779e-05
30 *9241:B2 *9243:A1 0.000958994
31 *9244:B *9243:A1 0.000867222
32 *9257:A3 *9257:B2 0.000204046
33 *9257:B1 *9243:A1 0.000255722
34 *9257:B1 *9257:B2 4.50449e-05
35 *9258:B2 *9258:A2 0.000247403
36 *9259:A2 *516:18 0.000135018
37 *9259:A2 *516:48 0.00220571
38 *9259:B2 *516:18 0.00107101
39 *9259:B2 *516:48 0.000523547
40 *9261:A2 *9258:A2 0.000312998
41 *9261:A3 *9258:A2 0.000458141
42 *9374:I1 *9243:A1 0.000145228
43 *9374:I1 *516:18 4.15129e-05
44 *9440:D *9129:I 0.000267752
45 *9525:I *9257:B2 0.000587226
46 *9529:I *9257:B2 9.26705e-05
47 *9535:I *9258:A2 1.40518e-05
48 *9535:I *516:10 6.71845e-05
49 *9537:I *9258:A2 1.59984e-05
50 *9538:I *516:48 0.000555867
51 *9582:I *516:10 0
52 *295:12 *516:10 2.43735e-05
53 *295:20 *9257:B2 0.000204373
54 *295:20 *516:14 0.00054504
55 *295:20 *516:40 3.71904e-05
56 *332:18 *9243:A1 3.18726e-05
57 *378:159 *9129:I 0.00130422
58 *378:159 *9240:A1 0.00015551
59 *378:159 *516:79 2.96621e-05
60 *405:25 *9257:B2 8.62306e-05
61 *405:31 *9257:B2 6.71348e-05
62 *405:31 *516:14 0.00128242
63 *405:31 *516:40 6.54978e-05
64 *405:38 *9240:A1 1.5015e-05
65 *408:25 *9243:A1 8.51896e-05
66 *408:25 *516:18 0.000246607
67 *416:14 *516:48 1.50458e-05
68 *422:10 *516:14 0.000829551
69 *449:32 *9129:I 0.000333054
70 *449:32 *9240:A1 9.29141e-05
71 *511:31 *516:18 0.000425433
72 *511:55 *516:18 0.000232746
73 *512:34 *516:18 0.000100797
74 *513:37 *9243:A1 0.000203956
*RES
1 *9530:Z *516:10 9.288 
2 *516:10 *516:14 11.416 
3 *516:14 *516:18 10.96 
4 *516:18 *9244:A3 4.5 
5 *516:18 *9243:A1 18.744 
6 *516:14 *516:40 0.38 
7 *516:40 *516:48 11.568 
8 *516:48 *9258:A2 15.856 
9 *516:48 *9259:A1 4.5 
10 *516:40 *9257:B2 11.964 
11 *516:10 *516:79 2.052 
12 *516:79 *9129:I 16.768 
13 *516:79 *9240:A1 15.704 
*END

*D_NET *517 0.0133962
*CONN
*I *9233:A1 I *D gf180mcu_fd_sc_mcu7t5v0__and2_1
*I *9531:Z O *D gf180mcu_fd_sc_mcu7t5v0__dlyd_1
*CAP
1 *9233:A1 0.00144441
2 *9531:Z 0.00144441
3 *9233:A1 *9230:A2 0.00107747
4 *9233:A1 *9342:A1 0.000110614
5 *9233:A1 *9381:I0 8.40847e-05
6 tl_o[22] *9233:A1 6.63508e-06
7 tl_o[8] *9233:A1 0.000675789
8 *9240:A1 *9233:A1 0.000337262
9 *9241:A1 *9233:A1 5.44e-05
10 *9241:B2 *9233:A1 0.000597338
11 *9261:A4 *9233:A1 0.000521847
12 *9582:I *9233:A1 0.000174581
13 *9663:I *9233:A1 0.00024118
14 *3:50 *9233:A1 0.000597873
15 *367:33 *9233:A1 0.00347254
16 *378:159 *9233:A1 0.000254352
17 *378:182 *9233:A1 1.52937e-05
18 *426:12 *9233:A1 0.000796969
19 *514:48 *9233:A1 0.000427638
20 *516:10 *9233:A1 0.000352175
21 *516:79 *9233:A1 0.000709313
*RES
1 *9531:Z *9233:A1 48.128 
*END

*D_NET *518 0.00265585
*CONN
*I *9223:A1 I *D gf180mcu_fd_sc_mcu7t5v0__and2_2
*I *9532:Z O *D gf180mcu_fd_sc_mcu7t5v0__dlyd_1
*CAP
1 *9223:A1 0.000348062
2 *9532:Z 0.000348062
3 *9223:A1 *9224:A2 0.000351478
4 tl_o[54] *9223:A1 0.000351478
5 *9223:A2 *9223:A1 6.5907e-05
6 *9468:I *9223:A1 5.94545e-06
7 *9479:I *9223:A1 0.000460436
8 *9481:I *9223:A1 7.93962e-05
9 *9639:I *9223:A1 9.42773e-05
10 *295:20 *9223:A1 0.0003537
11 *404:14 *9223:A1 0.000142118
12 *460:129 *9223:A1 5.49899e-05
*RES
1 *9532:Z *9223:A1 22.788 
*END

*D_NET *519 0.00274584
*CONN
*I *9224:A2 I *D gf180mcu_fd_sc_mcu7t5v0__and2_2
*I *9533:Z O *D gf180mcu_fd_sc_mcu7t5v0__dlyd_1
*CAP
1 *9224:A2 0.000609298
2 *9533:Z 0.000609298
3 *9224:A2 *9387:A1 4.01553e-05
4 tl_o[52] *9224:A2 0.000591216
5 tl_o[54] *9224:A2 0.000354108
6 *9223:A1 *9224:A2 0.000351478
7 *9262:B *9224:A2 0.000166066
8 *9388:B *9224:A2 2.42251e-05
*RES
1 *9533:Z *9224:A2 14.624 
*END

*D_NET *520 0.00594716
*CONN
*I *9225:A2 I *D gf180mcu_fd_sc_mcu7t5v0__and2_2
*I *9534:Z O *D gf180mcu_fd_sc_mcu7t5v0__dlyd_1
*CAP
1 *9225:A2 0.000547609
2 *9534:Z 0.000547609
3 *9225:A2 *9229:A2 0.00137811
4 *9225:A2 *9594:I 0.00123659
5 *9225:A1 *9225:A2 0.00047407
6 *9238:A1 *9225:A2 0.00034023
7 *9239:B2 *9225:A2 2.00634e-05
8 *402:26 *9225:A2 0.000873976
9 *460:14 *9225:A2 0.000528901
*RES
1 *9534:Z *9225:A2 18.196 
*END

*D_NET *521 0.00451108
*CONN
*I *9226:A2 I *D gf180mcu_fd_sc_mcu7t5v0__and2_2
*I *9535:Z O *D gf180mcu_fd_sc_mcu7t5v0__dlyd_1
*CAP
1 *9226:A2 0.000810077
2 *9535:Z 0.000810077
3 tl_o[0] *9226:A2 0.00141302
4 tl_o[5] *9226:A2 0.00019843
5 *9226:A1 *9226:A2 0.000146853
6 *9395:B *9226:A2 0.000325723
7 *9474:I *9226:A2 5.23993e-05
8 *9539:I *9226:A2 0.000535376
9 *9542:I *9226:A2 0.000139253
10 *408:51 *9226:A2 2.17381e-05
11 *416:14 *9226:A2 2.66232e-05
12 *511:8 *9226:A2 3.15134e-05
*RES
1 *9535:Z *9226:A2 17.512 
*END

*D_NET *522 0.00233834
*CONN
*I *9227:A2 I *D gf180mcu_fd_sc_mcu7t5v0__and2_2
*I *9536:Z O *D gf180mcu_fd_sc_mcu7t5v0__dlyd_1
*CAP
1 *9227:A2 0.000191437
2 *9536:Z 0.000191437
3 *9227:A2 *594:32 7.86903e-06
4 tl_o[4] *9227:A2 2.80879e-05
5 *9227:A1 *9227:A2 0.00024705
6 *9249:A2 *9227:A2 0.00029704
7 *9472:I *9227:A2 0
8 *9545:I *9227:A2 0.00137541
*RES
1 *9536:Z *9227:A2 21.8 
*END

*D_NET *523 0.00209613
*CONN
*I *9228:A2 I *D gf180mcu_fd_sc_mcu7t5v0__and2_2
*I *9537:Z O *D gf180mcu_fd_sc_mcu7t5v0__dlyd_1
*CAP
1 *9228:A2 0.00031789
2 *9537:Z 0.00031789
3 *9228:A2 *530:22 0.000377968
4 *9245:A1 *9228:A2 1.50699e-05
5 *9260:A2 *9228:A2 0.000941528
6 *9472:I *9228:A2 3.03414e-05
7 *449:32 *9228:A2 8.63341e-05
8 *460:110 *9228:A2 9.10381e-06
*RES
1 *9537:Z *9228:A2 21.496 
*END

*D_NET *524 0.00534322
*CONN
*I *9229:A2 I *D gf180mcu_fd_sc_mcu7t5v0__and2_2
*I *9538:Z O *D gf180mcu_fd_sc_mcu7t5v0__dlyd_1
*CAP
1 *9229:A2 0.000667544
2 *9538:Z 0.000667544
3 *9229:A2 *9381:I0 8.38219e-05
4 *9229:A2 *9381:I1 0.000421998
5 *9229:A2 *9594:I 9.18451e-05
6 *9225:A2 *9229:A2 0.00137811
7 *9440:CLK *9229:A2 0.000134206
8 *378:108 *9229:A2 0.00159283
9 *378:110 *9229:A2 0.000278469
10 *449:16 *9229:A2 0
11 *460:14 *9229:A2 2.68517e-05
*RES
1 *9538:Z *9229:A2 18.044 
*END

*D_NET *525 0.00572071
*CONN
*I *9230:A2 I *D gf180mcu_fd_sc_mcu7t5v0__and2_2
*I *9539:Z O *D gf180mcu_fd_sc_mcu7t5v0__dlyd_1
*CAP
1 *9230:A2 0.00103814
2 *9539:Z 0.00103814
3 *9230:A2 *9232:A2 0.0012564
4 *9230:A2 *9381:I0 0.000152578
5 *9230:A2 *594:32 3.21564e-05
6 tl_o[22] *9230:A2 4.25064e-05
7 *9230:A1 *9230:A2 0.00014967
8 *9233:A1 *9230:A2 0.00107747
9 *9395:B *9230:A2 0.00016892
10 *9531:I *9230:A2 0.000378609
11 *372:18 *9230:A2 9.08447e-05
12 *405:31 *9230:A2 0.000101334
13 *460:8 *9230:A2 0.000193933
*RES
1 *9539:Z *9230:A2 29.476 
*END

*D_NET *526 0.00408971
*CONN
*I *9378:I0 I *D gf180mcu_fd_sc_mcu7t5v0__mux2_2
*I *9540:Z O *D gf180mcu_fd_sc_mcu7t5v0__dlyd_1
*CAP
1 *9378:I0 0.000494819
2 *9540:Z 0.000494819
3 *9378:I0 *9378:I1 4.56663e-06
4 tl_o[26] *9378:I0 0.000116847
5 tl_o[54] *9378:I0 0.000254734
6 *9536:I *9378:I0 0.000129907
7 *9540:I *9378:I0 0.00141633
8 *9640:I *9378:I0 0.00022747
9 *512:16 *9378:I0 0.000950217
*RES
1 *9540:Z *9378:I0 24.84 
*END

*D_NET *527 0.00442186
*CONN
*I *9379:I0 I *D gf180mcu_fd_sc_mcu7t5v0__mux2_2
*I *9541:Z O *D gf180mcu_fd_sc_mcu7t5v0__dlyd_1
*CAP
1 *9379:I0 0.000971381
2 *9541:Z 0.000971381
3 *9379:I0 *9378:I1 0.000479611
4 *9379:I0 *9379:I1 1.13722e-05
5 tl_o[26] *9379:I0 0.000130065
6 tl_o[54] *9379:I0 0.000167481
7 *9258:B2 *9379:I0 6.01311e-06
8 *9262:B *9379:I0 0.000382541
9 *9378:S *9379:I0 0.00030717
10 *9379:S *9379:I0 0.000772641
11 *9532:I *9379:I0 4.0496e-05
12 *9536:I *9379:I0 0.000181705
*RES
1 *9541:Z *9379:I0 26.816 
*END

*D_NET *528 0.00874223
*CONN
*I *9381:I0 I *D gf180mcu_fd_sc_mcu7t5v0__mux2_2
*I *9542:Z O *D gf180mcu_fd_sc_mcu7t5v0__dlyd_1
*CAP
1 *9381:I0 0.00141833
2 *9542:Z 0.00141833
3 *9381:I0 *9381:I1 3.26639e-05
4 *9381:I0 *9594:I 0.000496843
5 *9381:I0 *594:32 0.00024584
6 *9229:A2 *9381:I0 8.38219e-05
7 *9230:A2 *9381:I0 0.000152578
8 *9233:A1 *9381:I0 8.40847e-05
9 *9241:B2 *9381:I0 0.000412478
10 *9381:S *9381:I0 0.000291299
11 *9386:S *9381:I0 0.00073894
12 *9394:A2 *9381:I0 0.000421322
13 *9527:I *9381:I0 0.000817895
14 *9531:I *9381:I0 0.00103924
15 *402:26 *9381:I0 0.000336813
16 *405:31 *9381:I0 3.17546e-05
17 *405:38 *9381:I0 4.55836e-05
18 *422:48 *9381:I0 0
19 *460:8 *9381:I0 0.000186796
20 *460:14 *9381:I0 0.000487618
*RES
1 *9542:Z *9381:I0 33.808 
*END

*D_NET *529 0.000592537
*CONN
*I *9380:I0 I *D gf180mcu_fd_sc_mcu7t5v0__mux2_2
*I *9543:Z O *D gf180mcu_fd_sc_mcu7t5v0__dlyd_1
*CAP
1 *9380:I0 2.91559e-05
2 *9543:Z 2.91559e-05
3 tl_o[5] *9380:I0 0.000354616
4 *9539:I *9380:I0 0.000179609
*RES
1 *9543:Z *9380:I0 9.988 
*END

*D_NET *530 0.0147087
*CONN
*I *9586:I I *D gf180mcu_fd_sc_mcu7t5v0__dlyd_1
*I *9232:A2 I *D gf180mcu_fd_sc_mcu7t5v0__nand2_1
*I *9231:ZN O *D gf180mcu_fd_sc_mcu7t5v0__nor2_1
*CAP
1 *9586:I 0
2 *9232:A2 0.001201
3 *9231:ZN 0.00125921
4 *530:22 0.00246021
5 *9232:A2 *9592:I 0.000814562
6 *9228:A2 *530:22 0.000377968
7 *9230:A1 *9232:A2 0.000623581
8 *9230:A2 *9232:A2 0.0012564
9 *9232:A1 *9232:A2 0.00020108
10 *9236:A2 *530:22 0.000104737
11 *9239:A2 *530:22 0.000283254
12 *9241:B1 *530:22 0.000899095
13 *9245:A1 *530:22 0.000131006
14 *9260:A2 *530:22 8.0352e-06
15 *9280:A1 *9232:A2 0.000111858
16 *9341:I0 *9232:A2 5.14116e-06
17 *9345:I0 *530:22 0.00116319
18 *9395:A2 *530:22 0.000246274
19 *9531:I *9232:A2 0.000378609
20 *9582:I *9232:A2 0.000331829
21 *9582:I *530:22 5.97012e-05
22 *248:8 *530:22 9.21887e-05
23 *295:12 *9232:A2 8.55327e-05
24 *371:22 *530:22 0.000100387
25 *378:159 *530:22 8.55327e-05
26 *380:57 *530:22 0.000634346
27 *405:31 *9232:A2 4.85279e-06
28 *449:32 *530:22 0.00115709
29 *460:81 *530:22 2.57782e-05
30 *460:106 *530:22 7.50556e-05
31 *515:8 *530:22 8.1274e-05
32 *515:25 *530:22 0.0001807
33 *516:10 *9232:A2 7.5315e-05
34 *516:14 *9232:A2 4.51089e-05
35 *516:79 *9232:A2 0.000144181
36 *516:79 *530:22 4.58601e-06
*RES
1 *9231:ZN *530:22 38.688 
2 *530:22 *9232:A2 26.8 
3 *530:22 *9586:I 4.5 
*END

*D_NET *531 0.00124377
*CONN
*I *9587:I I *D gf180mcu_fd_sc_mcu7t5v0__dlyd_1
*I *9317:Z O *D gf180mcu_fd_sc_mcu7t5v0__mux2_2
*CAP
1 *9587:I 0.000350169
2 *9317:Z 0.000350169
3 *9317:I0 *9587:I 0
4 *9317:I1 *9587:I 0.000318437
5 *444:37 *9587:I 0.00022499
*RES
1 *9317:Z *9587:I 21.952 
*END

*D_NET *532 0.00418416
*CONN
*I *9588:I I *D gf180mcu_fd_sc_mcu7t5v0__dlyd_1
*I *9321:Z O *D gf180mcu_fd_sc_mcu7t5v0__mux2_2
*CAP
1 *9588:I 0.00153519
2 *9321:Z 0.00153519
3 *9321:S *9588:I 4.02664e-05
4 *411:14 *9588:I 0.000405082
5 *411:16 *9588:I 0.000668422
*RES
1 *9321:Z *9588:I 30.464 
*END

*D_NET *533 0.00106283
*CONN
*I *9589:I I *D gf180mcu_fd_sc_mcu7t5v0__dlyd_1
*I *9325:Z O *D gf180mcu_fd_sc_mcu7t5v0__mux2_2
*CAP
1 *9589:I 0.000439698
2 *9325:Z 0.000439698
3 *9321:I1 *9589:I 0
4 *9325:S *9589:I 0
5 *411:50 *9589:I 0
6 *444:37 *9589:I 0.000183434
*RES
1 *9325:Z *9589:I 21.04 
*END

*D_NET *534 0.00158619
*CONN
*I *9590:I I *D gf180mcu_fd_sc_mcu7t5v0__dlyd_1
*I *9329:Z O *D gf180mcu_fd_sc_mcu7t5v0__mux2_2
*CAP
1 *9590:I 0.000413436
2 *9329:Z 0.000413436
3 tl_o[16] *9590:I 5.3266e-05
4 *411:16 *9590:I 0.000353025
5 *444:33 *9590:I 0.000353025
*RES
1 *9329:Z *9590:I 22.256 
*END

*D_NET *535 0.00498171
*CONN
*I *9591:I I *D gf180mcu_fd_sc_mcu7t5v0__dlyd_1
*I *9269:Z O *D gf180mcu_fd_sc_mcu7t5v0__and2_1
*CAP
1 *9591:I 0.000566554
2 *9269:Z 0.000566554
3 *9591:I *9598:I 0.00181623
4 tl_o[27] *9591:I 8.51219e-05
5 *9254:A2 *9591:I 8.07059e-05
6 *9388:B *9591:I 0.000584986
7 *9478:I *9591:I 0.000973394
8 *295:20 *9591:I 6.99564e-05
9 *460:150 *9591:I 0.000238204
*RES
1 *9269:Z *9591:I 26.208 
*END

*D_NET *536 0.00676567
*CONN
*I *9592:I I *D gf180mcu_fd_sc_mcu7t5v0__dlyd_1
*I *9333:Z O *D gf180mcu_fd_sc_mcu7t5v0__mux2_2
*CAP
1 *9592:I 0.000815983
2 *9333:Z 0.000815983
3 tl_o[0] *9592:I 5.49848e-05
4 *9130:I *9592:I 0.000136128
5 *9232:A2 *9592:I 0.000814562
6 *9395:B *9592:I 5.71374e-05
7 *9474:I *9592:I 0.000414598
8 *9537:I *9592:I 0.000308079
9 *9553:I *9592:I 8.55242e-05
10 *295:12 *9592:I 1.01609e-05
11 *295:20 *9592:I 0.000341488
12 *420:14 *9592:I 0.000185138
13 *441:14 *9592:I 0.00167825
14 *441:34 *9592:I 0.00104765
15 *516:14 *9592:I 0
*RES
1 *9333:Z *9592:I 31.832 
*END

*D_NET *537 0.00359414
*CONN
*I *9593:I I *D gf180mcu_fd_sc_mcu7t5v0__dlyd_1
*I *9337:Z O *D gf180mcu_fd_sc_mcu7t5v0__mux2_2
*CAP
1 *9593:I 0.000872768
2 *9337:Z 0.000872768
3 *9593:I *9220:A1 3.75647e-05
4 *9593:I *9381:I1 9.75999e-05
5 *9381:S *9593:I 0.000164563
6 *9434:D *9593:I 0
7 *9435:D *9593:I 0.000376667
8 *9437:CLK *9593:I 0.000133818
9 *9538:I *9593:I 0.000496517
10 *378:110 *9593:I 0.000120325
11 *422:31 *9593:I 0.000421548
*RES
1 *9337:Z *9593:I 26.056 
*END

*D_NET *538 0.00572197
*CONN
*I *9594:I I *D gf180mcu_fd_sc_mcu7t5v0__dlyd_1
*I *9341:Z O *D gf180mcu_fd_sc_mcu7t5v0__mux2_2
*CAP
1 *9594:I 0.000680283
2 *9341:Z 0.000680283
3 *9594:I *9381:I1 0.000562336
4 *9225:A2 *9594:I 0.00123659
5 *9229:A2 *9594:I 9.18451e-05
6 *9341:I1 *9594:I 0.000225963
7 *9381:I0 *9594:I 0.000496843
8 *9434:D *9594:I 0.000115767
9 *9435:D *9594:I 0.00015384
10 *9497:I *9594:I 7.57844e-05
11 *9574:I *9594:I 0.000300075
12 *393:14 *9594:I 0.000204921
13 *402:26 *9594:I 0.000872375
14 *444:18 *9594:I 2.50715e-05
*RES
1 *9341:Z *9594:I 28.108 
*END

*D_NET *539 0.00531994
*CONN
*I *9382:I0 I *D gf180mcu_fd_sc_mcu7t5v0__mux2_2
*I *9544:Z O *D gf180mcu_fd_sc_mcu7t5v0__dlyd_1
*CAP
1 *9382:I0 0.000938314
2 *9544:Z 0.000938314
3 *9382:I0 *9214:A1 8.55242e-05
4 *9382:I0 *9633:D[0] 0.00024871
5 *9382:I0 *594:129 0.00102665
6 *9382:I0 *594:146 5.93303e-05
7 *9382:I0 *594:161 2.65844e-05
8 tl_o[56] *9382:I0 9.42493e-05
9 tl_o[65] *9382:I0 0.000386742
10 *9382:S *9382:I0 8.55242e-05
11 *9385:I0 *9382:I0 0.00125364
12 *308:12 *9382:I0 8.13062e-05
13 *375:94 *9382:I0 9.50423e-05
*RES
1 *9544:Z *9382:I0 27.88 
*END

*D_NET *540 0.000335987
*CONN
*I *9595:I I *D gf180mcu_fd_sc_mcu7t5v0__dlyd_1
*I *9345:Z O *D gf180mcu_fd_sc_mcu7t5v0__mux2_2
*CAP
1 *9595:I 5.03392e-05
2 *9345:Z 5.03392e-05
3 *9537:I *9595:I 0.000108555
4 *416:14 *9595:I 0.000100627
5 *420:14 *9595:I 2.6126e-05
*RES
1 *9345:Z *9595:I 9.684 
*END

*D_NET *541 0.00433321
*CONN
*I *9596:I I *D gf180mcu_fd_sc_mcu7t5v0__dlyd_1
*I *9349:Z O *D gf180mcu_fd_sc_mcu7t5v0__mux2_2
*CAP
1 *9596:I 0.000971704
2 *9349:Z 0.000971704
3 *9596:I *9347:A1 4.09625e-06
4 *9596:I *9597:I 0.000572485
5 *9138:A4 *9596:I 1.21177e-05
6 *9252:A2 *9596:I 0.000478924
7 *9348:A1 *9596:I 0
8 *9444:D *9596:I 0.000382339
9 *9445:D *9596:I 0
10 *9445:CLK *9596:I 8.30464e-05
11 *9473:I *9596:I 3.08604e-05
12 *9578:I *9596:I 0
13 *380:31 *9596:I 0.000565906
14 *381:63 *9596:I 8.9996e-05
15 *448:61 *9596:I 0.000170029
*RES
1 *9349:Z *9596:I 26.36 
*END

*D_NET *542 0.0107773
*CONN
*I *9597:I I *D gf180mcu_fd_sc_mcu7t5v0__dlyd_1
*I *9353:Z O *D gf180mcu_fd_sc_mcu7t5v0__mux2_2
*CAP
1 *9597:I 0.00150521
2 *9353:Z 0.00150521
3 *9247:A1 *9597:I 0.000930858
4 *9247:A2 *9597:I 0.000195189
5 *9248:A3 *9597:I 5.78857e-05
6 *9255:A1 *9597:I 5.7423e-06
7 *9390:I0 *9597:I 2.40988e-05
8 *9408:D *9597:I 0.000458149
9 *9436:CLK *9597:I 0.000167207
10 *9442:CLK *9597:I 1.97747e-05
11 *9476:I *9597:I 0.000639685
12 *9520:I *9597:I 0.00112808
13 *9584:I *9597:I 8.55327e-05
14 *9596:I *9597:I 0.000572485
15 *329:26 *9597:I 0.000492954
16 *380:12 *9597:I 0.000269865
17 *380:31 *9597:I 0.00104262
18 *472:10 *9597:I 4.09674e-06
19 *472:36 *9597:I 0.00136323
20 *474:44 *9597:I 0.000309442
*RES
1 *9353:Z *9597:I 35.936 
*END

*D_NET *543 0.0139585
*CONN
*I *9598:I I *D gf180mcu_fd_sc_mcu7t5v0__dlyd_1
*I *9357:Z O *D gf180mcu_fd_sc_mcu7t5v0__mux2_2
*CAP
1 *9598:I 0.0013703
2 *9357:Z 0.0013703
3 *9598:I *9219:A2 4.92886e-05
4 *9598:I *9222:A1 0.000544395
5 *9598:I *608:10 0.000830151
6 *9598:I *611:12 0.000285611
7 tl_o[13] *9598:I 0.00113055
8 tl_o[64] *9598:I 0.000101357
9 *9254:A2 *9598:I 0.0014124
10 *9439:D *9598:I 0.000355371
11 *9478:I *9598:I 8.0977e-05
12 *9526:I *9598:I 0.0011949
13 *9579:I *9598:I 0.00277375
14 *9581:I *9598:I 8.62306e-05
15 *9591:I *9598:I 0.00181623
16 *295:20 *9598:I 2.6126e-05
17 *375:94 *9598:I 0.000506242
18 *393:14 *9598:I 2.43271e-05
*RES
1 *9357:Z *9598:I 42.624 
*END

*D_NET *544 0.00825702
*CONN
*I *9599:I I *D gf180mcu_fd_sc_mcu7t5v0__dlyd_1
*I *9361:Z O *D gf180mcu_fd_sc_mcu7t5v0__mux2_2
*CAP
1 *9599:I 0.00124217
2 *9361:Z 0.00124217
3 *9599:I *559:24 0.000540819
4 *9599:I *610:14 0.00119487
5 tl_o[40] *9599:I 0.00183052
6 tl_o[56] *9599:I 0.000204046
7 tl_o[6] *9599:I 8.35118e-05
8 *9248:A2 *9599:I 0
9 *9357:I0 *9599:I 0.000664581
10 *9361:S *9599:I 9.84201e-05
11 *9438:D *9599:I 6.04444e-06
12 *9499:I *9599:I 0
13 *9520:I *9599:I 1.46914e-05
14 *9528:I *9599:I 0.000906665
15 *375:94 *9599:I 3.36514e-05
16 *419:14 *9599:I 0.000194861
*RES
1 *9361:Z *9599:I 33.96 
*END

*D_NET *545 0.000943805
*CONN
*I *9600:I I *D gf180mcu_fd_sc_mcu7t5v0__dlyd_1
*I *9365:Z O *D gf180mcu_fd_sc_mcu7t5v0__mux2_2
*CAP
1 *9600:I 0.000453001
2 *9365:Z 0.000453001
3 *9600:I *9603:I 3.78032e-05
4 *447:16 *9600:I 0
*RES
1 *9365:Z *9600:I 11.584 
*END

*D_NET *546 0.00109444
*CONN
*I *9601:I I *D gf180mcu_fd_sc_mcu7t5v0__dlyd_1
*I *9369:Z O *D gf180mcu_fd_sc_mcu7t5v0__mux2_2
*CAP
1 *9601:I 0.000418455
2 *9369:Z 0.000418455
3 *9601:I *9603:I 8.18929e-05
4 *418:35 *9601:I 0
5 *447:10 *9601:I 0.000175636
*RES
1 *9369:Z *9601:I 21.572 
*END

*D_NET *547 0.00187049
*CONN
*I *9602:I I *D gf180mcu_fd_sc_mcu7t5v0__dlyd_1
*I *9373:Z O *D gf180mcu_fd_sc_mcu7t5v0__mux2_2
*CAP
1 *9602:I 0.000365819
2 *9373:Z 0.000365819
3 *419:29 *9602:I 0.000980044
4 *447:16 *9602:I 0.000158809
*RES
1 *9373:Z *9602:I 23.092 
*END

*D_NET *548 0.00397531
*CONN
*I *9603:I I *D gf180mcu_fd_sc_mcu7t5v0__dlyd_1
*I *9145:Z O *D gf180mcu_fd_sc_mcu7t5v0__mux2_2
*CAP
1 *9603:I 0.000670953
2 *9145:Z 0.000670953
3 *9369:S *9603:I 0.00069853
4 *9600:I *9603:I 3.78032e-05
5 *9601:I *9603:I 8.18929e-05
6 *419:29 *9603:I 0.000959477
7 *419:40 *9603:I 0.000335667
8 *447:10 *9603:I 0.000232732
9 *447:36 *9603:I 0.000287297
*RES
1 *9145:Z *9603:I 25.904 
*END

*D_NET *549 0.00953214
*CONN
*I *9604:I I *D gf180mcu_fd_sc_mcu7t5v0__dlyd_1
*I *9150:Z O *D gf180mcu_fd_sc_mcu7t5v0__mux2_2
*CAP
1 *9604:I 0.00338732
2 *9150:Z 0.00338732
3 *9604:I *9606:I 0.0027575
4 *9604:I *9607:I 0
5 tl_o[35] *9604:I 0
*RES
1 *9150:Z *9604:I 49.464 
*END

*D_NET *550 0.0098267
*CONN
*I *9383:I0 I *D gf180mcu_fd_sc_mcu7t5v0__mux2_2
*I *9545:Z O *D gf180mcu_fd_sc_mcu7t5v0__dlyd_1
*CAP
1 *9383:I0 0.00175667
2 *9545:Z 0.00175667
3 *9434:D *9383:I0 0.000121186
4 *9472:I *9383:I0 0.00286256
5 *422:14 *9383:I0 0.000101893
6 *422:20 *9383:I0 7.83779e-05
7 *422:31 *9383:I0 0.000310356
8 *422:85 *9383:I0 4.88903e-05
9 *449:32 *9383:I0 0.0027901
*RES
1 *9545:Z *9383:I0 34.872 
*END

*D_NET *551 0.00796762
*CONN
*I *9605:I I *D gf180mcu_fd_sc_mcu7t5v0__dlyd_1
*I *9154:Z O *D gf180mcu_fd_sc_mcu7t5v0__mux2_2
*CAP
1 *9605:I 0.00344069
2 *9154:Z 0.00344069
3 *9605:I *555:8 0.00103994
4 *9150:I1 *9605:I 4.58601e-06
5 *9158:S *9605:I 0
6 *442:33 *9605:I 4.17249e-05
*RES
1 *9154:Z *9605:I 46.12 
*END

*D_NET *552 0.0102131
*CONN
*I *9606:I I *D gf180mcu_fd_sc_mcu7t5v0__dlyd_1
*I *9158:Z O *D gf180mcu_fd_sc_mcu7t5v0__mux2_2
*CAP
1 *9606:I 0.00313759
2 *9158:Z 0.00313759
3 *9150:I1 *9606:I 0.000832188
4 *9150:S *9606:I 5.74961e-05
5 *9158:S *9606:I 3.36956e-05
6 *9604:I *9606:I 0.0027575
7 *409:29 *9606:I 7.02034e-05
8 *442:33 *9606:I 0.000186796
*RES
1 *9158:Z *9606:I 49.616 
*END

*D_NET *553 0.00686204
*CONN
*I *9607:I I *D gf180mcu_fd_sc_mcu7t5v0__dlyd_1
*I *9162:Z O *D gf180mcu_fd_sc_mcu7t5v0__mux2_2
*CAP
1 *9607:I 0.00318255
2 *9162:Z 0.00318255
3 *9150:I0 *9607:I 5.05502e-05
4 *9150:I1 *9607:I 0.000105527
5 *9150:S *9607:I 0.000213178
6 *9604:I *9607:I 0
7 *409:14 *9607:I 0.000127688
*RES
1 *9162:Z *9607:I 42.32 
*END

*D_NET *554 0.0139274
*CONN
*I *9608:I I *D gf180mcu_fd_sc_mcu7t5v0__dlyd_1
*I *9166:Z O *D gf180mcu_fd_sc_mcu7t5v0__mux2_2
*CAP
1 *9608:I 0
2 *9166:Z 0.000869541
3 *554:12 0.00609416
4 *554:8 0.00696371
5 *9166:S *554:8 0
*RES
1 *9166:Z *554:8 13.94 
2 *554:8 *554:12 48.2 
3 *554:12 *9608:I 4.5 
*END

*D_NET *555 0.0175029
*CONN
*I *9609:I I *D gf180mcu_fd_sc_mcu7t5v0__dlyd_1
*I *9170:Z O *D gf180mcu_fd_sc_mcu7t5v0__mux2_2
*CAP
1 *9609:I 0.000220856
2 *9170:Z 0
3 *555:8 0.00443642
4 *555:6 0.00421556
5 *9150:S *555:8 0
6 *9154:I0 *555:8 0.000696564
7 *9605:I *555:8 0.00103994
8 *379:73 *555:8 0.00270195
9 *379:77 *555:8 0.000896407
10 *409:14 *555:8 0
11 *442:23 *555:8 0.00105486
12 *442:25 *555:8 0.00197303
13 *442:27 *555:8 0.000184283
14 *442:33 *555:8 8.30371e-05
*RES
1 *9170:Z *555:6 9 
2 *555:6 *555:8 51.3 
3 *555:8 *9609:I 10.292 
*END

*D_NET *556 0.0319048
*CONN
*I *9610:I I *D gf180mcu_fd_sc_mcu7t5v0__dlyd_1
*I *9174:Z O *D gf180mcu_fd_sc_mcu7t5v0__mux2_2
*CAP
1 *9610:I 0
2 *9174:Z 0.000323448
3 *556:12 0.0147838
4 *556:10 0.0151072
5 *9299:A1 *556:10 0.000539951
6 *330:10 *556:10 4.78829e-05
7 *330:25 *556:10 0.00110252
*RES
1 *9174:Z *556:10 17.68 
2 *556:10 *556:12 109.516 
3 *556:12 *9610:I 13.5 
*END

*D_NET *557 0.0328186
*CONN
*I *9611:I I *D gf180mcu_fd_sc_mcu7t5v0__dlyd_1
*I *9178:Z O *D gf180mcu_fd_sc_mcu7t5v0__mux2_2
*CAP
1 *9611:I 0
2 *9178:Z 0.000149693
3 *557:12 0.0159717
4 *557:10 0.0161214
5 *9643:I *557:10 0.000128873
6 *261:18 *557:10 0
7 *261:24 *557:10 0.00042042
8 *443:22 *557:10 2.65866e-05
*RES
1 *9178:Z *557:10 14.944 
2 *557:10 *557:12 111.34 
3 *557:12 *9611:I 13.5 
*END

*D_NET *558 0.00441822
*CONN
*I *9612:I I *D gf180mcu_fd_sc_mcu7t5v0__dlyd_1
*I *9452:Z O *D gf180mcu_fd_sc_mcu7t5v0__buf_1
*CAP
1 *9612:I 0.000851015
2 *9452:Z 0.000851015
3 *9612:I *9231:A2 8.62647e-05
4 *9241:A1 *9612:I 1.76898e-05
5 *9244:B *9612:I 5.09442e-06
6 *9245:A2 *9612:I 0.000123799
7 *9257:B1 *9612:I 0.00136444
8 *9260:A1 *9612:I 8.04285e-05
9 *9260:A2 *9612:I 0.000254122
10 *9260:B *9612:I 0.000222575
11 *9453:I *9612:I 9.88736e-06
12 *9582:I *9612:I 7.3227e-05
13 *3:50 *9612:I 1.53727e-05
14 *296:14 *9612:I 0.000406593
15 *304:18 *9612:I 4.90184e-05
16 *513:37 *9612:I 7.6798e-06
*RES
1 *9452:Z *9612:I 17.056 
*END

*D_NET *559 0.0399782
*CONN
*I *9613:I I *D gf180mcu_fd_sc_mcu7t5v0__dlyd_1
*I *9183:Z O *D gf180mcu_fd_sc_mcu7t5v0__mux2_2
*CAP
1 *9613:I 0
2 *9183:Z 0.00196004
3 *559:24 0.00661549
4 *559:14 0.00857553
5 *559:24 *610:14 0.000274764
6 tl_o[27] *559:24 0.000103663
7 tl_o[40] *559:24 0.000241881
8 tl_o[56] *559:24 0.000232274
9 tl_o[6] *559:24 0.000170415
10 *9181:A2 *559:14 0.000330569
11 *9438:D *559:24 0.000379141
12 *9520:I *559:24 0.000327614
13 *9528:I *559:24 0.0003428
14 *9599:I *559:24 0.000540819
15 *258:20 *559:24 0.000233377
16 *412:31 *559:24 0.000239235
17 *412:45 *559:24 0.0081057
18 *431:26 *559:14 0.00947376
19 *431:26 *559:24 0.00112023
20 *448:69 *559:14 0.000710873
*RES
1 *9183:Z *559:14 38.884 
2 *559:14 *559:24 48.1739 
3 *559:24 *9613:I 13.5 
*END

*D_NET *560 0.0031707
*CONN
*I *9614:I I *D gf180mcu_fd_sc_mcu7t5v0__dlyd_1
*I *9187:Z O *D gf180mcu_fd_sc_mcu7t5v0__mux2_2
*CAP
1 *9614:I 0.00072567
2 *9187:Z 0.00072567
3 *9187:I1 *9614:I 0.000160139
4 *9408:CLK *9614:I 2.96621e-05
5 *9648:I *9614:I 5.05502e-05
6 *380:25 *9614:I 9.28591e-05
7 *418:35 *9614:I 0.000459122
8 *445:20 *9614:I 0.000170936
9 *448:12 *9614:I 0.000663977
10 *448:20 *9614:I 1.40792e-05
11 *448:38 *9614:I 5.28375e-05
12 *448:49 *9614:I 2.51987e-05
*RES
1 *9187:Z *9614:I 25.144 
*END

*D_NET *561 0.00657229
*CONN
*I *9314:A1 I *D gf180mcu_fd_sc_mcu7t5v0__nand3_1
*I *9632:Q[0] O *D gf180mcu_fd_ip_sram__sram256x8m8wm1
*CAP
1 *9314:A1 0.00326476
2 *9632:Q[0] 0.00326476
3 *9316:A1 *9314:A1 4.27813e-05
4 *9632:WEN[0] *9314:A1 0
*RES
1 *9632:Q[0] *9314:A1 36.338 
*END

*D_NET *562 0.00273106
*CONN
*I *9354:A1 I *D gf180mcu_fd_sc_mcu7t5v0__nand3_1
*I *9633:Q[2] O *D gf180mcu_fd_ip_sram__sram256x8m8wm1
*CAP
1 *9354:A1 0.000820558
2 *9633:Q[2] 0.000820558
3 *9354:A1 *9633:D[2] 0
4 *9354:A1 *9633:D[1] 0
5 *9186:A2 *9354:A1 0.000315663
6 *9471:I *9354:A1 2.5506e-05
7 *222:6 *9354:A1 0.000748773
*RES
1 *9633:Q[2] *9354:A1 10.77 
*END

*D_NET *563 0.00262317
*CONN
*I *9358:A1 I *D gf180mcu_fd_sc_mcu7t5v0__nand3_1
*I *9633:Q[3] O *D gf180mcu_fd_ip_sram__sram256x8m8wm1
*CAP
1 *9358:A1 0.000985051
2 *9633:Q[3] 0.000985051
3 *455:18 *9358:A1 5.57409e-05
4 *468:22 *9358:A1 0.00059733
*RES
1 *9633:Q[3] *9358:A1 20.834 
*END

*D_NET *564 0.0055284
*CONN
*I *9362:A1 I *D gf180mcu_fd_sc_mcu7t5v0__nand3_1
*I *9633:Q[4] O *D gf180mcu_fd_ip_sram__sram256x8m8wm1
*CAP
1 *9362:A1 0.00116992
2 *9633:Q[4] 0.00116992
3 *9362:A1 *9366:A1 0.000159942
4 *9372:A1 *9362:A1 1.3758e-05
5 *9633:WEN[4] *9362:A1 0
6 *258:71 *9362:A1 0.00268376
7 *258:80 *9362:A1 0.000331102
*RES
1 *9633:Q[4] *9362:A1 24.938 
*END

*D_NET *565 0.00544472
*CONN
*I *9366:A1 I *D gf180mcu_fd_sc_mcu7t5v0__nand3_1
*I *9633:Q[5] O *D gf180mcu_fd_ip_sram__sram256x8m8wm1
*CAP
1 *9366:A1 0.00134881
2 *9633:Q[5] 0.00134881
3 *9366:A1 *9370:A1 0.00112664
4 *9366:A1 *9633:D[5] 0.000714496
5 *9142:A3 *9366:A1 0.000644864
6 *9362:A1 *9366:A1 0.000159942
7 *9368:A1 *9366:A1 3.14479e-05
8 *9372:A1 *9366:A1 5.87561e-06
9 *258:80 *9366:A1 6.38438e-05
*RES
1 *9633:Q[5] *9366:A1 29.042 
*END

*D_NET *566 0.0072897
*CONN
*I *9370:A1 I *D gf180mcu_fd_sc_mcu7t5v0__nand3_1
*I *9633:Q[6] O *D gf180mcu_fd_ip_sram__sram256x8m8wm1
*CAP
1 *9370:A1 0.00180181
2 *9633:Q[6] 0.00180181
3 *9370:A1 *9633:D[6] 0.000400059
4 *9142:A2 *9370:A1 0.00111125
5 *9142:A3 *9370:A1 0.00104814
6 *9366:A1 *9370:A1 0.00112664
*RES
1 *9633:Q[6] *9370:A1 31.55 
*END

*D_NET *567 0.00764396
*CONN
*I *9142:A1 I *D gf180mcu_fd_sc_mcu7t5v0__nand3_1
*I *9633:Q[7] O *D gf180mcu_fd_ip_sram__sram256x8m8wm1
*CAP
1 *9142:A1 0.00380059
2 *9633:Q[7] 0.00380059
3 *9144:A1 *9142:A1 4.27813e-05
4 *9633:WEN[7] *9142:A1 0
*RES
1 *9633:Q[7] *9142:A1 39.53 
*END

*D_NET *568 0.00489692
*CONN
*I *9147:A1 I *D gf180mcu_fd_sc_mcu7t5v0__nand3_1
*I *9634:Q[0] O *D gf180mcu_fd_ip_sram__sram256x8m8wm1
*CAP
1 *9147:A1 0.0018176
2 *9634:Q[0] 0.0018176
3 *9147:A1 *9634:D[2] 0
4 *9147:A1 *9634:D[1] 0.0001011
5 *9296:A1 *9147:A1 0.0011284
6 *9634:WEN[0] *9147:A1 0
7 *330:60 *9147:A1 3.22131e-05
*RES
1 *9634:Q[0] *9147:A1 29.118 
*END

*D_NET *569 0.00302163
*CONN
*I *9151:A1 I *D gf180mcu_fd_sc_mcu7t5v0__nand3_1
*I *9634:Q[1] O *D gf180mcu_fd_ip_sram__sram256x8m8wm1
*CAP
1 *9151:A1 0.000793203
2 *9634:Q[1] 0.000793203
3 *9151:A1 *9634:D[2] 0.00103215
4 *9151:A1 *9634:D[1] 0.000177717
5 *9147:A3 *9151:A1 7.24161e-06
6 *498:12 *9151:A1 0.000218118
*RES
1 *9634:Q[1] *9151:A1 20.682 
*END

*D_NET *570 0.00185158
*CONN
*I *9155:A1 I *D gf180mcu_fd_sc_mcu7t5v0__nand3_1
*I *9634:Q[2] O *D gf180mcu_fd_ip_sram__sram256x8m8wm1
*CAP
1 *9155:A1 0.000922911
2 *9634:Q[2] 0.000922911
3 *9155:A1 *9634:D[2] 0
4 *9155:A3 *9155:A1 5.75752e-06
5 *498:12 *9155:A1 0
*RES
1 *9634:Q[2] *9155:A1 19.162 
*END

*D_NET *571 0.00238468
*CONN
*I *9159:A1 I *D gf180mcu_fd_sc_mcu7t5v0__nand3_1
*I *9634:Q[3] O *D gf180mcu_fd_ip_sram__sram256x8m8wm1
*CAP
1 *9159:A1 0.00103921
2 *9634:Q[3] 0.00103921
3 *9161:A1 *9159:A1 1.76898e-05
4 *9634:WEN[3] *9159:A1 0
5 *434:46 *9159:A1 3.73535e-05
6 *498:12 *9159:A1 0.000251216
*RES
1 *9634:Q[3] *9159:A1 20.986 
*END

*D_NET *572 0.00562396
*CONN
*I *9318:A1 I *D gf180mcu_fd_sc_mcu7t5v0__nand3_1
*I *9632:Q[1] O *D gf180mcu_fd_ip_sram__sram256x8m8wm1
*CAP
1 *9318:A1 0.00178519
2 *9632:Q[1] 0.00178519
3 *9318:A1 *9322:A1 0.000639395
4 *9318:A1 *9632:D[1] 0.000130262
5 *9314:A2 *9318:A1 5.15348e-05
6 *9314:A3 *9318:A1 0.00123239
*RES
1 *9632:Q[1] *9318:A1 28.966 
*END

*D_NET *573 0.00790731
*CONN
*I *9163:A1 I *D gf180mcu_fd_sc_mcu7t5v0__nand3_1
*I *9634:Q[4] O *D gf180mcu_fd_ip_sram__sram256x8m8wm1
*CAP
1 *9163:A1 0.00393651
2 *9634:Q[4] 0.00393651
3 *9165:A1 *9163:A1 3.42838e-05
4 *9634:WEN[4] *9163:A1 0
5 *453:22 *9163:A1 0
6 *453:38 *9163:A1 0
*RES
1 *9634:Q[4] *9163:A1 39.986 
*END

*D_NET *574 0.0112931
*CONN
*I *9167:A1 I *D gf180mcu_fd_sc_mcu7t5v0__nand3_1
*I *9634:Q[5] O *D gf180mcu_fd_ip_sram__sram256x8m8wm1
*CAP
1 *9167:A1 0.00156407
2 *9634:Q[5] 0.00156407
3 *9167:A1 *9634:D[5] 0.00084339
4 *9167:A1 *9634:D[4] 0.00319075
5 *9645:I *9167:A1 0.00127449
6 *261:35 *9167:A1 0.00257732
7 *330:25 *9167:A1 0.000279004
*RES
1 *9634:Q[5] *9167:A1 39.074 
*END

*D_NET *575 0.00187571
*CONN
*I *9171:A1 I *D gf180mcu_fd_sc_mcu7t5v0__nand3_1
*I *9634:Q[6] O *D gf180mcu_fd_ip_sram__sram256x8m8wm1
*CAP
1 *9171:A1 0.000716124
2 *9634:Q[6] 0.000716124
3 *9171:A1 *9634:D[6] 0.000354807
4 *9171:A2 *9171:A1 3.91978e-05
5 *9174:I0 *9171:A1 9.70638e-06
6 *261:35 *9171:A1 5.87561e-06
7 *434:25 *9171:A1 3.38774e-05
*RES
1 *9634:Q[6] *9171:A1 10.01 
*END

*D_NET *576 0.00190724
*CONN
*I *9175:A1 I *D gf180mcu_fd_sc_mcu7t5v0__nand3_1
*I *9634:Q[7] O *D gf180mcu_fd_ip_sram__sram256x8m8wm1
*CAP
1 *9175:A1 0.000933642
2 *9634:Q[7] 0.000933642
3 *9177:A1 *9175:A1 3.99555e-05
4 *9634:WEN[7] *9175:A1 0
5 *453:14 *9175:A1 0
*RES
1 *9634:Q[7] *9175:A1 19.618 
*END

*D_NET *577 0.0096631
*CONN
*I *9180:A1 I *D gf180mcu_fd_sc_mcu7t5v0__nand3_1
*I *9635:Q[0] O *D gf180mcu_fd_ip_sram__sram256x8m8wm1
*CAP
1 *9180:A1 0.00467133
2 *9635:Q[0] 0.00467133
3 *9635:WEN[0] *9180:A1 0
4 *192:10 *9180:A1 0.000320447
5 *414:17 *9180:A1 0
6 *452:28 *9180:A1 0
*RES
1 *9635:Q[0] *9180:A1 43.786 
*END

*D_NET *578 0.0340009
*CONN
*I *9184:A1 I *D gf180mcu_fd_sc_mcu7t5v0__nand3_1
*I *9635:Q[1] O *D gf180mcu_fd_ip_sram__sram256x8m8wm1
*CAP
1 *9184:A1 0.00225038
2 *9635:Q[1] 0.000178776
3 *578:13 0.0158236
4 *578:11 0.013752
5 *578:11 *9635:D[1] 5.13858e-06
6 *431:26 *9184:A1 5.27998e-05
7 *439:35 *9184:A1 3.09482e-05
8 *452:28 *578:11 0.000292452
9 *503:12 *578:13 0.00161474
*RES
1 *9635:Q[1] *578:11 10.178 
2 *578:11 *578:13 87.2399 
3 *578:13 *9184:A1 30.3939 
*END

*D_NET *579 0.011447
*CONN
*I *9188:A1 I *D gf180mcu_fd_sc_mcu7t5v0__nand3_1
*I *9635:Q[2] O *D gf180mcu_fd_ip_sram__sram256x8m8wm1
*CAP
1 *9188:A1 0.0014138
2 *9635:Q[2] 0.0014138
3 *9188:A1 *9192:A1 0.00181042
4 *9188:A1 *9635:D[2] 0
5 *331:39 *9188:A1 0.0004317
6 *437:12 *9188:A1 0.00637727
*RES
1 *9635:Q[2] *9188:A1 34.134 
*END

*D_NET *580 0.0111176
*CONN
*I *9192:A1 I *D gf180mcu_fd_sc_mcu7t5v0__nand3_1
*I *9635:Q[3] O *D gf180mcu_fd_ip_sram__sram256x8m8wm1
*CAP
1 *9192:A1 0.0013793
2 *9635:Q[3] 0.0013793
3 *9188:A1 *9192:A1 0.00181042
4 *9635:WEN[3] *9192:A1 0
5 *331:39 *9192:A1 0.00114515
6 *331:50 *9192:A1 0.000109574
7 *331:52 *9192:A1 0.000184039
8 *437:12 *9192:A1 4.78829e-05
9 *437:21 *9192:A1 0.00506194
*RES
1 *9635:Q[3] *9192:A1 35.35 
*END

*D_NET *581 0.00171021
*CONN
*I *9196:A1 I *D gf180mcu_fd_sc_mcu7t5v0__nand3_1
*I *9635:Q[4] O *D gf180mcu_fd_ip_sram__sram256x8m8wm1
*CAP
1 *9196:A1 0.000853636
2 *9635:Q[4] 0.000853636
3 *9196:A3 *9196:A1 2.9378e-06
*RES
1 *9635:Q[4] *9196:A1 9.934 
*END

*D_NET *582 0.0045672
*CONN
*I *9200:A1 I *D gf180mcu_fd_sc_mcu7t5v0__nand3_1
*I *9635:Q[5] O *D gf180mcu_fd_ip_sram__sram256x8m8wm1
*CAP
1 *9200:A1 0.00123256
2 *9635:Q[5] 0.00123256
3 *9200:A1 *9635:D[5] 0
4 *9206:A1 *9200:A1 0
5 *9208:A3 *9200:A1 0.000960863
6 *9210:A1 *9200:A1 0.00021548
7 *278:84 *9200:A1 0.000462869
8 *437:52 *9200:A1 0.000462869
*RES
1 *9635:Q[5] *9200:A1 32.038 
*END

*D_NET *583 0.00528652
*CONN
*I *9322:A1 I *D gf180mcu_fd_sc_mcu7t5v0__nand3_1
*I *9632:Q[2] O *D gf180mcu_fd_ip_sram__sram256x8m8wm1
*CAP
1 *9322:A1 0.00142122
2 *9632:Q[2] 0.00142122
3 *9322:A1 *9632:D[2] 0.000122715
4 *9314:A2 *9322:A1 0.00146789
5 *9314:A3 *9322:A1 5.19228e-05
6 *9318:A1 *9322:A1 0.000639395
7 *9320:A1 *9322:A1 2.33043e-05
8 *9324:A1 *9322:A1 3.42838e-05
9 *332:49 *9322:A1 0.000104569
*RES
1 *9632:Q[2] *9322:A1 26.914 
*END

*D_NET *584 0.00347346
*CONN
*I *9204:A1 I *D gf180mcu_fd_sc_mcu7t5v0__nand3_1
*I *9635:Q[6] O *D gf180mcu_fd_ip_sram__sram256x8m8wm1
*CAP
1 *9204:A1 0.00150197
2 *9635:Q[6] 0.00150197
3 *9204:A1 *9635:D[6] 0.000172009
4 *9204:A3 *9204:A1 2.9378e-06
5 *507:14 *9204:A1 0.000294566
*RES
1 *9635:Q[6] *9204:A1 23.266 
*END

*D_NET *585 0.00591384
*CONN
*I *9208:A1 I *D gf180mcu_fd_sc_mcu7t5v0__nand3_1
*I *9635:Q[7] O *D gf180mcu_fd_ip_sram__sram256x8m8wm1
*CAP
1 *9208:A1 0.00217326
2 *9635:Q[7] 0.00217326
3 *9208:A1 *9635:D[6] 7.72929e-06
4 *9309:A1 *9208:A1 0
5 *9635:WEN[7] *9208:A1 0
6 *331:52 *9208:A1 4.02664e-05
7 *331:67 *9208:A1 0.00143261
8 *331:80 *9208:A1 8.67139e-05
9 *505:12 *9208:A1 0
*RES
1 *9635:Q[7] *9208:A1 31.702 
*END

*D_NET *586 0.00278449
*CONN
*I *9326:A1 I *D gf180mcu_fd_sc_mcu7t5v0__nand3_1
*I *9632:Q[3] O *D gf180mcu_fd_ip_sram__sram256x8m8wm1
*CAP
1 *9326:A1 0.00137085
2 *9632:Q[3] 0.00137085
3 *9328:A1 *9326:A1 4.27914e-05
4 *9632:WEN[3] *9326:A1 0
5 *332:47 *9326:A1 0
*RES
1 *9632:Q[3] *9326:A1 22.658 
*END

*D_NET *587 0.00346952
*CONN
*I *9330:A1 I *D gf180mcu_fd_sc_mcu7t5v0__nand3_1
*I *9632:Q[4] O *D gf180mcu_fd_ip_sram__sram256x8m8wm1
*CAP
1 *9330:A1 0.00140233
2 *9632:Q[4] 0.00140233
3 *9330:A2 *9330:A1 7.3102e-05
4 *9330:A3 *9330:A1 5.87561e-06
5 *9464:I *9330:A1 9.51581e-06
6 *9632:WEN[4] *9330:A1 0
7 *9663:I *9330:A1 0.000149771
8 *458:18 *9330:A1 0.000426604
*RES
1 *9632:Q[4] *9330:A1 23.266 
*END

*D_NET *588 0.00194063
*CONN
*I *9334:A1 I *D gf180mcu_fd_sc_mcu7t5v0__nand3_1
*I *9632:Q[5] O *D gf180mcu_fd_ip_sram__sram256x8m8wm1
*CAP
1 *9334:A1 0.000782656
2 *9632:Q[5] 0.000782656
3 *9334:A1 *9632:D[6] 1.49066e-06
4 *9334:A1 *9632:D[5] 0.000326865
5 *332:35 *9334:A1 1.15244e-05
6 *458:18 *9334:A1 3.54432e-05
*RES
1 *9632:Q[5] *9334:A1 19.01 
*END

*D_NET *589 0.00182841
*CONN
*I *9338:A1 I *D gf180mcu_fd_sc_mcu7t5v0__nand3_1
*I *9632:Q[6] O *D gf180mcu_fd_ip_sram__sram256x8m8wm1
*CAP
1 *9338:A1 0.000468148
2 *9632:Q[6] 0.000468148
3 *9338:A1 *9632:D[6] 0.000708165
4 *9338:A3 *9338:A1 2.9378e-06
5 *332:18 *9338:A1 0.000181009
*RES
1 *9632:Q[6] *9338:A1 9.326 
*END

*D_NET *590 0.0077956
*CONN
*I *9342:A1 I *D gf180mcu_fd_sc_mcu7t5v0__nand3_1
*I *9632:Q[7] O *D gf180mcu_fd_ip_sram__sram256x8m8wm1
*CAP
1 *9342:A1 0.0012376
2 *9632:Q[7] 0.0012376
3 *9342:A1 *9213:A1 5.60574e-05
4 *9233:A1 *9342:A1 0.000110614
5 *9238:A2 *9342:A1 0.00150415
6 *9241:B2 *9342:A1 0.00020242
7 *9342:A2 *9342:A1 0.000118388
8 *9342:A3 *9342:A1 8.22031e-06
9 *9447:D *9342:A1 8.8425e-05
10 *9470:I *9342:A1 0.000118114
11 *9632:WEN[7] *9342:A1 0
12 *9653:I *9342:A1 0.00113057
13 *9661:I *9342:A1 0.000921591
14 *332:18 *9342:A1 7.45328e-07
15 *378:182 *9342:A1 7.72425e-05
16 *432:17 *9342:A1 0.000369159
17 *433:10 *9342:A1 0.000609221
18 *458:18 *9342:A1 5.4811e-06
*RES
1 *9632:Q[7] *9342:A1 28.662 
*END

*D_NET *591 0.00804999
*CONN
*I *9346:A1 I *D gf180mcu_fd_sc_mcu7t5v0__nand3_1
*I *9633:Q[0] O *D gf180mcu_fd_ip_sram__sram256x8m8wm1
*CAP
1 *9346:A1 0.000912691
2 *9633:Q[0] 0.000912691
3 *9282:A1 *9346:A1 0
4 *9282:A3 *9346:A1 0
5 *9442:D *9346:A1 0
6 *9633:WEN[0] *9346:A1 0
7 *258:20 *9346:A1 0.00296253
8 *370:53 *9346:A1 0.00296481
9 *439:16 *9346:A1 0.000297268
*RES
1 *9633:Q[0] *9346:A1 25.47 
*END

*D_NET *592 0.00246346
*CONN
*I *9350:A1 I *D gf180mcu_fd_sc_mcu7t5v0__nand3_1
*I *9633:Q[1] O *D gf180mcu_fd_ip_sram__sram256x8m8wm1
*CAP
1 *9350:A1 0.000897786
2 *9633:Q[1] 0.000897786
3 *9350:A1 *9633:D[2] 0.000202188
4 *9350:A1 *9633:D[1] 0.000189249
5 *190:23 *9350:A1 0.000141363
6 *190:33 *9350:A1 3.71904e-05
7 *440:10 *9350:A1 2.6126e-05
8 *440:21 *9350:A1 4.38621e-05
9 *448:61 *9350:A1 0
10 *455:18 *9350:A1 2.79132e-05
*RES
1 *9633:Q[1] *9350:A1 20.074 
*END

*D_NET *593 0.00357134
*CONN
*I *9131:A2 I *D gf180mcu_fd_sc_mcu7t5v0__nand2_1
*I *9132:A2 I *D gf180mcu_fd_sc_mcu7t5v0__aoi21_1
*I *9451:Q O *D gf180mcu_fd_sc_mcu7t5v0__dffrnq_1
*CAP
1 *9131:A2 0
2 *9132:A2 0.000222193
3 *9451:Q 0.000778778
4 *593:12 0.00100097
5 *9132:A2 *9131:A1 0.000245082
6 *593:12 *9131:A1 2.88786e-05
7 *9140:A2 *593:12 5.0128e-05
8 *9312:A2 *9132:A2 7.83779e-05
9 *249:12 *9132:A2 3.81953e-05
10 *249:12 *593:12 0.000580603
11 *257:18 *9132:A2 0.00010054
12 *299:12 *9132:A2 0.000192775
13 *299:12 *593:12 6.98246e-05
14 *299:16 *593:12 6.68132e-05
15 *438:56 *593:12 4.42356e-05
16 *438:72 *593:12 6.53491e-05
17 *449:82 *593:12 8.59272e-06
*RES
1 *9451:Q *593:12 19.124 
2 *593:12 *9132:A2 15.476 
3 *593:12 *9131:A2 4.5 
*END

*D_NET *594 0.0489049
*CONN
*I *9221:A2 I *D gf180mcu_fd_sc_mcu7t5v0__and2_1
*I *9454:I I *D gf180mcu_fd_sc_mcu7t5v0__buf_1
*I *9215:A2 I *D gf180mcu_fd_sc_mcu7t5v0__and2_1
*I *9214:A2 I *D gf180mcu_fd_sc_mcu7t5v0__and2_1
*I *9219:A2 I *D gf180mcu_fd_sc_mcu7t5v0__and2_1
*I *9222:A2 I *D gf180mcu_fd_sc_mcu7t5v0__and2_1
*I *9216:A2 I *D gf180mcu_fd_sc_mcu7t5v0__and2_1
*I *9233:A2 I *D gf180mcu_fd_sc_mcu7t5v0__and2_1
*I *9213:A2 I *D gf180mcu_fd_sc_mcu7t5v0__and2_1
*I *9220:A2 I *D gf180mcu_fd_sc_mcu7t5v0__and2_1
*I *9217:A2 I *D gf180mcu_fd_sc_mcu7t5v0__and2_1
*I *9218:A2 I *D gf180mcu_fd_sc_mcu7t5v0__and2_1
*I *9212:ZN O *D gf180mcu_fd_sc_mcu7t5v0__aoi21_1
*CAP
1 *9221:A2 6.8841e-05
2 *9454:I 0
3 *9215:A2 0
4 *9214:A2 0
5 *9219:A2 6.87863e-05
6 *9222:A2 7.00497e-05
7 *9216:A2 7.5846e-05
8 *9233:A2 0.000252185
9 *9213:A2 0
10 *9220:A2 0
11 *9217:A2 0.00032121
12 *9218:A2 0.000352206
13 *9212:ZN 0.000123397
14 *594:161 0.000148677
15 *594:146 0.000224291
16 *594:135 0.000374106
17 *594:129 0.00056141
18 *594:119 0.000503756
19 *594:117 0.000955907
20 *594:83 0.00101968
21 *594:38 0.00095922
22 *594:32 0.0026659
23 *594:12 0.0031704
24 *594:8 0.000867021
25 *9217:A2 *606:8 0.000347561
26 *9217:A2 *607:10 0.000202433
27 *9218:A2 *9218:A1 1.5015e-05
28 *9221:A2 *9389:I1 7.3227e-05
29 *9221:A2 *613:22 7.3227e-05
30 *9222:A2 *9214:A1 2.35972e-06
31 *9233:A2 *9213:A1 6.90153e-05
32 *594:38 *9220:A1 0.000219584
33 *594:83 *9450:D 0.000114063
34 *594:117 *9135:A1 9.71009e-05
35 *594:117 *9138:A3 0.000103015
36 *594:117 *9633:D[0] 0.000102079
37 *594:119 *9138:A3 0.000445311
38 *594:119 *9633:D[0] 8.99616e-05
39 *594:129 *9138:A3 0.000317448
40 *594:129 *9633:D[0] 6.22213e-05
41 tl_o[13] *9219:A2 0.000512533
42 tl_o[24] *9219:A2 0.000209085
43 tl_o[24] *594:161 0.000143041
44 tl_o[25] *9219:A2 0.000201947
45 tl_o[25] *594:161 0.000169167
46 tl_o[4] *594:32 0.00023599
47 tl_o[4] *594:83 0.000267556
48 tl_o[56] *594:146 0
49 tl_o[58] *594:129 0.00036947
50 tl_o[60] *9217:A2 0.000609642
51 tl_o[65] *9216:A2 5.4811e-06
52 tl_o[65] *9222:A2 0.000177992
53 tl_o[65] *594:129 0.000154453
54 tl_o[8] *9233:A2 0.000236903
55 *9135:A2 *594:83 7.48834e-05
56 *9138:A4 *594:129 0.000175625
57 *9186:A1 *594:117 0.00168842
58 *9227:A1 *594:32 8.50198e-05
59 *9227:A2 *594:32 7.86903e-06
60 *9230:A2 *594:32 3.21564e-05
61 *9234:A2 *594:83 0.000251817
62 *9234:B *594:83 4.40124e-05
63 *9249:A2 *594:32 0.000748791
64 *9253:A1 *9221:A2 0.000876178
65 *9254:A2 *594:117 0.000493419
66 *9254:A2 *594:135 0.000140658
67 *9254:A2 *594:146 0.000412073
68 *9254:A2 *594:161 0.00046645
69 *9254:A3 *594:117 2.23477e-05
70 *9261:A1 *594:32 0.000100702
71 *9263:A3 *594:117 0.00032334
72 *9270:A2 *594:83 0.00013063
73 *9280:A1 *9217:A2 1.72881e-05
74 *9280:A1 *594:32 0
75 *9280:A1 *594:38 2.01099e-05
76 *9311:A1 *9233:A2 6.82786e-06
77 *9311:A1 *594:83 0.000648353
78 *9333:I0 *594:32 8.96975e-05
79 *9341:I0 *594:38 0.00041521
80 *9381:I0 *594:32 0.00024584
81 *9382:I0 *594:129 0.00102665
82 *9382:I0 *594:146 5.93303e-05
83 *9382:I0 *594:161 2.65844e-05
84 *9384:I0 *594:129 0.000449539
85 *9384:I0 *594:135 0.000348194
86 *9385:I0 *594:129 5.59457e-05
87 *9385:S *594:135 9.58084e-05
88 *9386:S *594:32 0.000718612
89 *9393:I0 *594:117 0.000386266
90 *9394:A2 *594:32 0.00143632
91 *9395:B *594:32 0.00518492
92 *9450:CLK *594:83 0.000140814
93 *9452:I *9233:A2 2.39622e-05
94 *9452:I *594:83 8.03759e-06
95 *9481:I *594:32 0.000250857
96 *9488:I *9219:A2 3.83835e-06
97 *9499:I *9219:A2 7.83779e-05
98 *9520:I *9216:A2 0.000177992
99 *9520:I *594:135 0.000665678
100 *9573:I *594:129 0.000430567
101 *9573:I *594:135 0.00171445
102 *9574:I *9217:A2 1.44786e-05
103 *9574:I *594:38 1.24155e-05
104 *9577:I *594:32 0.000299961
105 *9579:I *9222:A2 1.58994e-05
106 *9581:I *9219:A2 0.000350359
107 *9582:I *9233:A2 0.000249416
108 *9598:I *9219:A2 4.92886e-05
109 *9639:I *594:129 5.8775e-05
110 *9652:I *594:117 0.000208334
111 *245:14 *594:8 2.6126e-05
112 *253:12 *594:8 3.08902e-05
113 *256:12 *594:8 7.10421e-05
114 *295:20 *594:32 0
115 *304:18 *9233:A2 0.000230324
116 *328:12 *594:32 5.66946e-05
117 *365:14 *594:32 3.91978e-05
118 *367:33 *594:117 0.000646736
119 *370:53 *594:12 0.000961764
120 *370:53 *594:117 0.000878149
121 *371:22 *9221:A2 0.000877741
122 *371:22 *594:12 0.000478105
123 *371:22 *594:117 0.0003071
124 *372:18 *594:32 0.000131142
125 *375:94 *594:129 1.37616e-05
126 *375:94 *594:161 0.000181247
127 *380:43 *594:117 6.1888e-05
128 *380:47 *594:117 8.84331e-05
129 *380:207 *594:83 2.6126e-05
130 *393:14 *9218:A2 6.68164e-05
131 *404:14 *594:8 1.34616e-05
132 *404:14 *594:32 0
133 *405:23 *594:32 3.54426e-05
134 *405:25 *594:32 4.97713e-05
135 *405:31 *594:32 0.000336283
136 *407:20 *594:83 4.01673e-05
137 *408:25 *9233:A2 7.9795e-05
138 *411:12 *9218:A2 0.000621258
139 *411:12 *594:32 1.15275e-05
140 *411:12 *594:38 0.000519274
141 *421:13 *594:135 3.00299e-05
142 *421:41 *594:135 0.000168122
143 *438:12 *9217:A2 3.26676e-05
144 *438:12 *9218:A2 8.93456e-05
145 *449:16 *9218:A2 4.28201e-05
146 *449:38 *594:83 0.000183682
147 *460:14 *594:32 1.31444e-05
148 *460:77 *594:32 0.000325274
149 *460:81 *594:32 0.000402108
150 *460:106 *594:32 7.44785e-05
151 *460:110 *594:32 0.000160868
152 *460:123 *594:32 3.28992e-05
*RES
1 *9212:ZN *594:8 9.836 
2 *594:8 *594:12 6.856 
3 *594:12 *594:32 46.12 
4 *594:32 *594:38 7.54 
5 *594:38 *9218:A2 12.04 
6 *594:38 *9217:A2 12.572 
7 *594:32 *9220:A2 4.5 
8 *594:12 *594:83 28.96 
9 *594:83 *9213:A2 9 
10 *594:83 *9233:A2 11.508 
11 *594:8 *594:117 24.444 
12 *594:117 *594:119 1.444 
13 *594:119 *594:129 14.7 
14 *594:129 *594:135 9.516 
15 *594:135 *9216:A2 9.532 
16 *594:135 *594:146 1.14 
17 *594:146 *9222:A2 9.532 
18 *594:146 *594:161 6.324 
19 *594:161 *9219:A2 15.552 
20 *594:161 *9214:A2 4.5 
21 *594:129 *9215:A2 4.5 
22 *594:119 *9454:I 4.5 
23 *594:117 *9221:A2 16.084 
*END

*D_NET *595 0.0157184
*CONN
*I *9131:A1 I *D gf180mcu_fd_sc_mcu7t5v0__nand2_1
*I *9132:A1 I *D gf180mcu_fd_sc_mcu7t5v0__aoi21_1
*I *9127:I I *D gf180mcu_fd_sc_mcu7t5v0__clkinv_1
*I *9134:A1 I *D gf180mcu_fd_sc_mcu7t5v0__nand2_1
*I *9231:A1 I *D gf180mcu_fd_sc_mcu7t5v0__nor2_1
*I *9269:A1 I *D gf180mcu_fd_sc_mcu7t5v0__and2_1
*I *9448:Q O *D gf180mcu_fd_sc_mcu7t5v0__dffrnq_1
*CAP
1 *9131:A1 0.000269287
2 *9132:A1 0
3 *9127:I 0
4 *9134:A1 0.000119767
5 *9231:A1 0.000182608
6 *9269:A1 0.000888708
7 *9448:Q 0
8 *595:66 0.000395401
9 *595:33 0.000560356
10 *595:31 0.000318241
11 *595:29 0.000517106
12 *595:4 0.00121944
13 *9269:A1 *9269:A2 0.000883797
14 *9269:A1 *603:10 0
15 tl_o[14] *9231:A1 0.00032464
16 tl_o[4] *9134:A1 1.55387e-05
17 tl_o[4] *595:33 0.000345839
18 *9132:A2 *9131:A1 0.000245082
19 *9138:A1 *9269:A1 0
20 *9235:A2 *9269:A1 0.000226549
21 *9236:A2 *9134:A1 0.000349398
22 *9241:B1 *9231:A1 2.6126e-05
23 *9245:B *9231:A1 0.00013201
24 *9254:A3 *9269:A1 0.000505665
25 *9264:A1 *595:29 6.68164e-05
26 *9265:A3 *9269:A1 0.000151957
27 *9265:A3 *595:29 2.45791e-05
28 *9312:A4 *595:29 1.7295e-05
29 *9388:A2 *9269:A1 1.34615e-05
30 *9393:S *9269:A1 8.2622e-05
31 *9441:D *9269:A1 0.000132725
32 *9450:CLK *9134:A1 0.000348384
33 *9470:I *9231:A1 0
34 *9470:I *595:33 0
35 *9471:I *9269:A1 0.000110627
36 *9471:I *595:29 0
37 *9471:I *595:31 0
38 *9471:I *595:33 0
39 *9580:I *9231:A1 6.56014e-05
40 *9580:I *595:29 0.000305102
41 *9580:I *595:31 2.23783e-05
42 *9580:I *595:33 0.000115026
43 *245:34 *595:66 0.000174123
44 *245:61 *595:66 0.000124318
45 *249:12 *9131:A1 2.11616e-05
46 *253:25 *595:31 0.000135048
47 *253:25 *595:33 0.000643582
48 *253:25 *595:66 7.83779e-05
49 *256:12 *9131:A1 0.000502835
50 *256:12 *595:66 0.00166097
51 *257:18 *9131:A1 0.000471945
52 *257:18 *595:66 0.000897639
53 *258:20 *9269:A1 0.000226699
54 *299:12 *9131:A1 1.81212e-05
55 *325:10 *9269:A1 0.00018371
56 *325:12 *9269:A1 0.000190571
57 *375:72 *595:29 0.00011703
58 *380:88 *9134:A1 0.000413258
59 *438:56 *9131:A1 3.07734e-05
60 *449:59 *9231:A1 8.06713e-05
61 *449:59 *595:33 0.000142809
62 *449:82 *9131:A1 0
63 *495:18 *9269:A1 0.000477431
64 *512:94 *9269:A1 0.00011627
65 *593:12 *9131:A1 2.88786e-05
*RES
1 *9448:Q *595:4 4.5 
2 *595:4 *9269:A1 22.392 
3 *595:4 *595:29 7.388 
4 *595:29 *595:31 0.532 
5 *595:31 *595:33 2.812 
6 *595:33 *9231:A1 10.748 
7 *595:33 *9134:A1 11.204 
8 *595:31 *9127:I 9 
9 *595:29 *595:66 8.832 
10 *595:66 *9132:A1 4.5 
11 *595:66 *9131:A1 16.464 
*END

*D_NET *596 0.00144301
*CONN
*I *9451:D I *D gf180mcu_fd_sc_mcu7t5v0__dffrnq_1
*I *9268:I0 I *D gf180mcu_fd_sc_mcu7t5v0__mux2_2
*I *9266:ZN O *D gf180mcu_fd_sc_mcu7t5v0__nor2_1
*CAP
1 *9451:D 0.000237801
2 *9268:I0 0.000119046
3 *9266:ZN 0.000356847
4 *9268:I0 *648:34 0.000209639
5 *9451:D *648:34 0.000116109
6 *299:16 *9268:I0 2.00784e-05
7 *299:16 *9451:D 0.000353742
8 *438:72 *9451:D 2.97523e-05
*RES
1 *9266:ZN *9268:I0 10.14 
2 *9266:ZN *9451:D 11.432 
*END

*D_NET *597 0.000683173
*CONN
*I *9448:D I *D gf180mcu_fd_sc_mcu7t5v0__dffrnq_1
*I *9234:ZN O *D gf180mcu_fd_sc_mcu7t5v0__oai21_1
*CAP
1 *9448:D 0.000134958
2 *9234:ZN 0.000134958
3 *9234:A2 *9448:D 0.000413258
4 *404:14 *9448:D 0
*RES
1 *9234:ZN *9448:D 10.14 
*END

*D_NET *598 0.00676931
*CONN
*I *9215:A1 I *D gf180mcu_fd_sc_mcu7t5v0__and2_1
*I *9378:I1 I *D gf180mcu_fd_sc_mcu7t5v0__mux2_2
*I *9432:Q O *D gf180mcu_fd_sc_mcu7t5v0__dffq_1
*CAP
1 *9215:A1 0.000393898
2 *9378:I1 0.000165423
3 *9432:Q 0
4 *598:4 0.00055932
5 *9215:A1 *9387:A1 0.00213753
6 tl_o[26] *9215:A1 0.000117531
7 tl_o[54] *9215:A1 0.000288612
8 *9255:A2 *9215:A1 0.00135501
9 *9378:I0 *9378:I1 4.56663e-06
10 *9379:I0 *9378:I1 0.000479611
11 *9387:A2 *9215:A1 0.000362727
12 *9474:I *9215:A1 5.33856e-05
13 *9536:I *9378:I1 0.000640891
14 *9640:I *9378:I1 0
15 *393:14 *9378:I1 0
16 *420:14 *9378:I1 4.75362e-05
17 *514:14 *9215:A1 0.000163276
*RES
1 *9432:Q *598:4 4.5 
2 *598:4 *9378:I1 15.932 
3 *598:4 *9215:A1 21.252 
*END

*D_NET *599 0.00529135
*CONN
*I *9389:I1 I *D gf180mcu_fd_sc_mcu7t5v0__mux2_2
*I *9138:A2 I *D gf180mcu_fd_sc_mcu7t5v0__or4_1
*I *9442:Q O *D gf180mcu_fd_sc_mcu7t5v0__dffq_1
*CAP
1 *9389:I1 0.000238305
2 *9138:A2 0.000147984
3 *9442:Q 3.27275e-05
4 *599:8 0.000419017
5 *9389:I1 *9221:A1 0.000724082
6 *9389:I1 *613:22 0.000118574
7 *9186:A1 *9138:A2 0.000255995
8 *9186:A1 *599:8 2.85527e-05
9 *9221:A2 *9389:I1 7.3227e-05
10 *9282:A1 *9389:I1 0.000550737
11 *9442:D *9389:I1 0.000145736
12 *9442:D *599:8 0.000318496
13 *9573:I *9389:I1 0.000345805
14 *9664:I *9138:A2 0.000122054
15 *9664:I *599:8 0.000105219
16 *367:33 *9138:A2 0.000905084
17 *367:33 *599:8 0.000759759
*RES
1 *9442:Q *599:8 10.9 
2 *599:8 *9138:A2 11.204 
3 *599:8 *9389:I1 12.724 
*END

*D_NET *600 0.00466842
*CONN
*I *9390:I1 I *D gf180mcu_fd_sc_mcu7t5v0__mux2_2
*I *9137:A1 I *D gf180mcu_fd_sc_mcu7t5v0__nand2_1
*I *9443:Q O *D gf180mcu_fd_sc_mcu7t5v0__dffq_1
*CAP
1 *9390:I1 0.000332075
2 *9137:A1 0.000122643
3 *9443:Q 0
4 *600:4 0.000454718
5 *9137:A1 *9137:A2 3.08902e-05
6 *9253:A1 *9137:A1 0.000154451
7 *9253:A1 *9390:I1 3.86587e-05
8 *9254:A1 *9137:A1 0
9 *9254:A1 *9390:I1 7.84402e-05
10 *9390:S *9390:I1 0.00104475
11 *9475:I *9390:I1 9.52854e-05
12 *380:25 *9390:I1 0.000746947
13 *380:29 *9390:I1 0.00156956
*RES
1 *9443:Q *600:4 4.5 
2 *600:4 *9137:A1 5.564 
3 *600:4 *9390:I1 20.34 
*END

*D_NET *601 0.00264637
*CONN
*I *9391:I1 I *D gf180mcu_fd_sc_mcu7t5v0__mux2_2
*I *9137:A2 I *D gf180mcu_fd_sc_mcu7t5v0__nand2_1
*I *9444:Q O *D gf180mcu_fd_sc_mcu7t5v0__dffq_1
*CAP
1 *9391:I1 0.00024236
2 *9137:A2 0.000167536
3 *9444:Q 0
4 *601:4 0.000409896
5 *9137:A1 *9137:A2 3.08902e-05
6 *9251:A1 *9391:I1 0.0002522
7 *9252:A2 *9391:I1 0.000479185
8 *9252:A3 *9391:I1 4.93649e-05
9 *9253:A1 *9137:A2 0.000215268
10 *9253:A1 *9391:I1 0.000107846
11 *9254:A1 *9137:A2 2.73945e-05
12 *9254:A1 *9391:I1 0.000146751
13 *371:22 *9391:I1 0.000260709
14 *474:44 *9391:I1 0.000256974
*RES
1 *9444:Q *601:4 4.5 
2 *601:4 *9137:A2 6.02 
3 *601:4 *9391:I1 16.996 
*END

*D_NET *602 0.00941585
*CONN
*I *9392:I1 I *D gf180mcu_fd_sc_mcu7t5v0__mux2_2
*I *9138:A3 I *D gf180mcu_fd_sc_mcu7t5v0__or4_1
*I *9445:Q O *D gf180mcu_fd_sc_mcu7t5v0__dffq_1
*CAP
1 *9392:I1 0.000116019
2 *9138:A3 0.000485231
3 *9445:Q 0.00020339
4 *602:12 0.000804639
5 *9138:A3 *9633:D[0] 3.20563e-06
6 *9392:I1 *9221:A1 0.000375128
7 *9392:I1 *613:22 0.000243643
8 *9138:A4 *9138:A3 0.00101725
9 *9252:A2 *9138:A3 0.000313936
10 *9252:A2 *602:12 0.00263708
11 *9253:A1 *602:12 3.73627e-05
12 *9255:B *602:12 3.73627e-05
13 *9263:A2 *9392:I1 0.000187308
14 *9473:I *9138:A3 0.000105476
15 *9473:I *602:12 6.95481e-05
16 *9573:I *9138:A3 0.000767638
17 *9573:I *9392:I1 6.81573e-05
18 *9573:I *602:12 2.23783e-05
19 *9584:I *602:12 0.00103198
20 *506:20 *602:12 2.33477e-05
21 *594:117 *9138:A3 0.000103015
22 *594:119 *9138:A3 0.000445311
23 *594:129 *9138:A3 0.000317448
*RES
1 *9445:Q *602:12 16.068 
2 *602:12 *9138:A3 15.232 
3 *602:12 *9392:I1 10.748 
*END

*D_NET *603 0.00739409
*CONN
*I *9269:A2 I *D gf180mcu_fd_sc_mcu7t5v0__and2_1
*I *9393:I1 I *D gf180mcu_fd_sc_mcu7t5v0__mux2_2
*I *9135:A1 I *D gf180mcu_fd_sc_mcu7t5v0__nor2_1
*I *9446:Q O *D gf180mcu_fd_sc_mcu7t5v0__dffq_1
*CAP
1 *9269:A2 0.000170511
2 *9393:I1 3.12326e-05
3 *9135:A1 0.000305988
4 *9446:Q 0.000163359
5 *603:25 0.000266595
6 *603:10 0.000534199
7 *9186:A1 *9135:A1 7.94242e-05
8 *9186:A1 *603:10 0.000893894
9 *9253:A1 *9269:A2 0.000237583
10 *9254:A2 *9135:A1 0.000305366
11 *9269:A1 *9269:A2 0.000883797
12 *9269:A1 *603:10 0
13 *9393:S *9269:A2 0.000883797
14 *9580:I *603:10 3.46582e-05
15 *256:12 *9135:A1 1.58969e-05
16 *370:53 *9135:A1 0.000661682
17 *370:53 *603:10 0.000871418
18 *371:22 *9269:A2 0.000232874
19 *375:72 *9135:A1 1.29518e-05
20 *380:47 *9135:A1 0.000155452
21 *460:150 *9269:A2 7.89192e-05
22 *460:150 *9393:I1 7.71175e-06
23 *460:150 *603:25 5.18155e-05
24 *512:94 *9269:A2 0.000185116
25 *512:94 *603:25 0.000232746
26 *594:117 *9135:A1 9.71009e-05
*RES
1 *9446:Q *603:10 12.04 
2 *603:10 *9135:A1 12.648 
3 *603:10 *603:25 5.184 
4 *603:25 *9393:I1 4.728 
5 *603:25 *9269:A2 17.224 
*END

*D_NET *604 0.0188624
*CONN
*I *9134:A2 I *D gf180mcu_fd_sc_mcu7t5v0__nand2_1
*I *9311:A2 I *D gf180mcu_fd_sc_mcu7t5v0__or2_1
*I *9394:A1 I *D gf180mcu_fd_sc_mcu7t5v0__nand2_1
*I *9447:Q O *D gf180mcu_fd_sc_mcu7t5v0__dffq_1
*CAP
1 *9134:A2 0.000208959
2 *9311:A2 0.000515369
3 *9394:A1 0.000639739
4 *9447:Q 0
5 *604:23 0.0011462
6 *604:6 0.00106161
7 *9394:A1 *9632:D[7] 0.00121373
8 tl_o[14] *9311:A2 1.51823e-05
9 *9234:B *9134:A2 3.91644e-05
10 *9245:A1 *9134:A2 0.000470422
11 *9245:A1 *604:23 0.000433228
12 *9245:A3 *604:23 0.00056691
13 *9265:A2 *9134:A2 0.000286808
14 *9394:A2 *9394:A1 2.6126e-05
15 *9447:D *604:23 0.000778977
16 *9470:I *9311:A2 0.000239655
17 *9470:I *604:23 0.000171769
18 *9554:I *9394:A1 0.000139861
19 *9577:I *9394:A1 0.000495083
20 *9663:I *9394:A1 0.000151515
21 *9663:I *604:23 0.000570288
22 *367:33 *9134:A2 0.000146334
23 *367:33 *9394:A1 0.000738037
24 *367:33 *604:23 0.00450448
25 *380:57 *9134:A2 0.000135047
26 *433:10 *9394:A1 0.00195246
27 *433:10 *604:23 0.00206219
28 *458:18 *9394:A1 0
29 *513:49 *9311:A2 0.000153252
*RES
1 *9447:Q *604:6 9 
2 *604:6 *9394:A1 18.576 
3 *604:6 *604:23 13.3 
4 *604:23 *9311:A2 20.964 
5 *604:23 *9134:A2 11.508 
*END

*D_NET *605 0.00926856
*CONN
*I *9216:A1 I *D gf180mcu_fd_sc_mcu7t5v0__and2_1
*I *9379:I1 I *D gf180mcu_fd_sc_mcu7t5v0__mux2_2
*I *9433:Q O *D gf180mcu_fd_sc_mcu7t5v0__dffq_1
*CAP
1 *9216:A1 0.000807151
2 *9379:I1 0.00066844
3 *9433:Q 0
4 *605:6 0.00147559
5 *9216:A1 *9222:A1 0.000403764
6 *9216:A1 *611:12 7.02696e-05
7 tl_o[13] *9216:A1 1.11891e-05
8 tl_o[54] *9379:I1 0.000254316
9 tl_o[63] *9216:A1 3.89716e-05
10 *9379:I0 *9379:I1 1.13722e-05
11 *9379:S *9379:I1 0
12 *9433:D *9379:I1 0.000575887
13 *9439:D *9216:A1 0.0012291
14 *9439:CLK *9216:A1 0.000707424
15 *9439:CLK *9379:I1 0.000993288
16 *9479:I *9379:I1 8.81341e-06
17 *9481:I *9379:I1 4.58601e-06
18 *9487:I *9216:A1 0
19 *9532:I *9379:I1 0.00200839
*RES
1 *9433:Q *605:6 9 
2 *605:6 *9379:I1 17.816 
3 *605:6 *9216:A1 16.524 
*END

*D_NET *606 0.00890777
*CONN
*I *9380:I1 I *D gf180mcu_fd_sc_mcu7t5v0__mux2_2
*I *9217:A1 I *D gf180mcu_fd_sc_mcu7t5v0__and2_1
*I *9434:Q O *D gf180mcu_fd_sc_mcu7t5v0__dffq_1
*CAP
1 *9380:I1 0.00104583
2 *9217:A1 0.000112024
3 *9434:Q 0.000124335
4 *606:8 0.00128218
5 *9380:I1 *9220:A1 0.000523602
6 *9380:I1 *9383:I1 0.000511681
7 tl_o[60] *606:8 3.25336e-05
8 *9217:A2 *606:8 0.000347561
9 *9341:I0 *606:8 0
10 *9380:S *9380:I1 0.000142809
11 *9437:D *9380:I1 0.00101157
12 *9482:I *9217:A1 0
13 *9482:I *9380:I1 0
14 *9496:I *9217:A1 0
15 *9496:I *9380:I1 0
16 *9497:I *9380:I1 0.00235553
17 *9535:I *9380:I1 0.000112483
18 *9538:I *9380:I1 0
19 *9574:I *606:8 0.000778308
20 *422:20 *9380:I1 0.000453567
21 *422:31 *9380:I1 7.37597e-05
*RES
1 *9434:Q *606:8 11.356 
2 *606:8 *9217:A1 9.684 
3 *606:8 *9380:I1 23.212 
*END

*D_NET *607 0.00607993
*CONN
*I *9381:I1 I *D gf180mcu_fd_sc_mcu7t5v0__mux2_2
*I *9218:A1 I *D gf180mcu_fd_sc_mcu7t5v0__and2_1
*I *9435:Q O *D gf180mcu_fd_sc_mcu7t5v0__dffq_1
*CAP
1 *9381:I1 0.000408933
2 *9218:A1 0.000103542
3 *9435:Q 0.000168396
4 *607:10 0.000680871
5 *9217:A2 *607:10 0.000202433
6 *9218:A2 *9218:A1 1.5015e-05
7 *9229:A2 *9381:I1 0.000421998
8 *9381:I0 *9381:I1 3.26639e-05
9 *9381:S *9381:I1 3.23347e-05
10 *9434:D *9381:I1 0.000505665
11 *9435:D *9381:I1 6.85428e-05
12 *9574:I *607:10 0.000711504
13 *9593:I *9381:I1 9.75999e-05
14 *9594:I *9381:I1 0.000562336
15 *378:110 *9381:I1 0.00013063
16 *393:14 *9218:A1 0.000148476
17 *393:14 *9381:I1 0.00023547
18 *438:12 *9218:A1 2.96621e-05
19 *438:12 *607:10 0
20 *444:31 *9218:A1 0.000635007
21 *444:31 *9381:I1 0.000888848
22 *449:16 *9218:A1 0
*RES
1 *9435:Q *607:10 11.128 
2 *607:10 *9218:A1 10.824 
3 *607:10 *9381:I1 15.384 
*END

*D_NET *608 0.00191314
*CONN
*I *9219:A1 I *D gf180mcu_fd_sc_mcu7t5v0__and2_1
*I *9382:I1 I *D gf180mcu_fd_sc_mcu7t5v0__mux2_2
*I *9436:Q O *D gf180mcu_fd_sc_mcu7t5v0__dffq_1
*CAP
1 *9219:A1 0
2 *9382:I1 0.00014615
3 *9436:Q 4.95828e-05
4 *608:10 0.000195733
5 tl_o[13] *608:10 0.000214589
6 *9476:I *9382:I1 0.000187957
7 *9499:I *9382:I1 9.18027e-05
8 *9581:I *608:10 0.000197178
9 *9598:I *608:10 0.000830151
*RES
1 *9436:Q *608:10 15.552 
2 *608:10 *9382:I1 5.792 
3 *608:10 *9219:A1 4.5 
*END

*D_NET *609 0.00879156
*CONN
*I *9383:I1 I *D gf180mcu_fd_sc_mcu7t5v0__mux2_2
*I *9220:A1 I *D gf180mcu_fd_sc_mcu7t5v0__and2_1
*I *9437:Q O *D gf180mcu_fd_sc_mcu7t5v0__dffq_1
*CAP
1 *9383:I1 0.000232698
2 *9220:A1 0.000784974
3 *9437:Q 4.72927e-05
4 *609:8 0.00106496
5 *9280:A1 *9220:A1 0.0011318
6 *9341:I0 *9220:A1 0.000167051
7 *9380:I1 *9220:A1 0.000523602
8 *9380:I1 *9383:I1 0.000511681
9 *9381:S *9220:A1 0.000126273
10 *9381:S *9383:I1 4.3343e-05
11 *9496:I *9220:A1 0.00070872
12 *9497:I *9220:A1 0.0010871
13 *9497:I *9383:I1 0.00125381
14 *9531:I *609:8 8.81341e-06
15 *9574:I *9220:A1 0.000142086
16 *9593:I *9220:A1 3.75647e-05
17 *422:31 *9383:I1 0.000700202
18 *594:38 *9220:A1 0.000219584
*RES
1 *9437:Q *609:8 9.228 
2 *609:8 *9220:A1 19.336 
3 *609:8 *9383:I1 14.852 
*END

*D_NET *610 0.0133176
*CONN
*I *9384:I1 I *D gf180mcu_fd_sc_mcu7t5v0__mux2_2
*I *9221:A1 I *D gf180mcu_fd_sc_mcu7t5v0__and2_1
*I *9438:Q O *D gf180mcu_fd_sc_mcu7t5v0__dffq_1
*CAP
1 *9384:I1 0
2 *9221:A1 0.000665082
3 *9438:Q 0.000435729
4 *610:14 0.00110081
5 tl_o[24] *9221:A1 0.00192043
6 tl_o[25] *9221:A1 0.00118221
7 tl_o[40] *610:14 0.000585903
8 tl_o[56] *610:14 5.87824e-05
9 tl_o[6] *9221:A1 4.62206e-05
10 *9263:A2 *9221:A1 0.000194033
11 *9282:A1 *9221:A1 0.000392982
12 *9389:I1 *9221:A1 0.000724082
13 *9389:S *9221:A1 7.83779e-05
14 *9392:I1 *9221:A1 0.000375128
15 *9438:D *610:14 0.00274672
16 *9476:I *610:14 0.000579934
17 *9486:I *610:14 0.000585903
18 *9499:I *610:14 1.72881e-05
19 *9526:I *9221:A1 2.41778e-05
20 *9573:I *9221:A1 4.78543e-05
21 *9599:I *610:14 0.00119487
22 *329:12 *9221:A1 4.44591e-06
23 *375:94 *610:14 4.83197e-05
24 *412:64 *9221:A1 3.35674e-05
25 *559:24 *610:14 0.000274764
*RES
1 *9438:Q *610:14 23.912 
2 *610:14 *9221:A1 22.924 
3 *610:14 *9384:I1 4.5 
*END

*D_NET *611 0.00224103
*CONN
*I *9222:A1 I *D gf180mcu_fd_sc_mcu7t5v0__and2_1
*I *9385:I1 I *D gf180mcu_fd_sc_mcu7t5v0__mux2_2
*I *9439:Q O *D gf180mcu_fd_sc_mcu7t5v0__dffq_1
*CAP
1 *9222:A1 1.57983e-05
2 *9385:I1 4.60968e-05
3 *9439:Q 6.48409e-05
4 *611:12 0.000126736
5 tl_o[13] *9222:A1 6.49038e-05
6 tl_o[53] *611:12 3.73627e-05
7 tl_o[58] *9385:I1 0.000235767
8 *9216:A1 *9222:A1 0.000403764
9 *9216:A1 *611:12 7.02696e-05
10 *9439:D *611:12 0.000159942
11 *9520:I *9385:I1 9.17202e-06
12 *9573:I *9385:I1 0.000176368
13 *9598:I *9222:A1 0.000544395
14 *9598:I *611:12 0.000285611
*RES
1 *9439:Q *611:12 10.14 
2 *611:12 *9385:I1 9.684 
3 *611:12 *9222:A1 10.444 
*END

*D_NET *612 0.00925943
*CONN
*I *9213:A1 I *D gf180mcu_fd_sc_mcu7t5v0__and2_1
*I *9386:I1 I *D gf180mcu_fd_sc_mcu7t5v0__mux2_2
*I *9440:Q O *D gf180mcu_fd_sc_mcu7t5v0__dffq_1
*CAP
1 *9213:A1 0.00163158
2 *9386:I1 0.000231583
3 *9440:Q 0
4 *612:4 0.00186316
5 tl_o[8] *9213:A1 0.0004318
6 *9233:A2 *9213:A1 6.90153e-05
7 *9238:A1 *9386:I1 0
8 *9238:A2 *9213:A1 0.00109309
9 *9241:B2 *9213:A1 6.16333e-05
10 *9311:A1 *9213:A1 8.30758e-05
11 *9342:A1 *9213:A1 5.60574e-05
12 *9582:I *9213:A1 4.86993e-06
13 *9632:WEN[7] *9213:A1 0.000886814
14 *304:18 *9213:A1 3.39869e-05
15 *332:18 *9213:A1 7.87826e-06
16 *402:26 *9213:A1 0.0010118
17 *405:38 *9213:A1 9.26705e-05
18 *405:38 *9386:I1 1.35288e-05
19 *407:22 *9213:A1 0.00147908
20 *435:8 *9213:A1 0.000207816
*RES
1 *9440:Q *612:4 4.5 
2 *612:4 *9386:I1 5.868 
3 *612:4 *9213:A1 32.272 
*END

*D_NET *613 0.0158584
*CONN
*I *9387:A1 I *D gf180mcu_fd_sc_mcu7t5v0__nand2_1
*I *9214:A1 I *D gf180mcu_fd_sc_mcu7t5v0__and2_1
*I *9441:Q O *D gf180mcu_fd_sc_mcu7t5v0__dffq_1
*CAP
1 *9387:A1 0.000444485
2 *9214:A1 0.000279859
3 *9441:Q 0.000909524
4 *613:22 0.00163387
5 tl_o[24] *9214:A1 0.00150546
6 tl_o[24] *9387:A1 0.000290785
7 tl_o[25] *613:22 0.000266873
8 tl_o[53] *613:22 5.7261e-06
9 tl_o[58] *613:22 3.83835e-06
10 tl_o[65] *9214:A1 0
11 *9215:A1 *9387:A1 0.00213753
12 *9221:A2 *613:22 7.3227e-05
13 *9222:A2 *9214:A1 2.35972e-06
14 *9224:A2 *9387:A1 4.01553e-05
15 *9248:A3 *9387:A1 3.84317e-05
16 *9248:A3 *613:22 0.000132963
17 *9252:A2 *613:22 0.000132099
18 *9255:A1 *613:22 0.000369712
19 *9255:A2 *9387:A1 0.000507718
20 *9262:B *9387:A1 0.000149793
21 *9263:A2 *613:22 8.36782e-05
22 *9382:I0 *9214:A1 8.55242e-05
23 *9382:S *9214:A1 0.000297936
24 *9384:I0 *9214:A1 0.000346658
25 *9384:I0 *9387:A1 5.4634e-05
26 *9389:I1 *613:22 0.000118574
27 *9392:I1 *613:22 0.000243643
28 *9442:D *613:22 0.000604486
29 *9476:I *613:22 1.15077e-05
30 *9540:I *613:22 0.00010515
31 *9572:I *613:22 0.000221419
32 *9573:I *613:22 0.000561202
33 *9579:I *9214:A1 1.08231e-05
34 *9581:I *613:22 4.76733e-05
35 *371:22 *613:22 0.000416085
36 *375:94 *9214:A1 5.09739e-06
37 *375:94 *9387:A1 1.51452e-05
38 *380:35 *613:22 0.00042524
39 *412:64 *613:22 0.000249869
40 *514:14 *9387:A1 0.00302965
*RES
1 *9441:Q *613:22 32.304 
2 *613:22 *9214:A1 8.68 
3 *613:22 *9387:A1 23.304 
*END

*D_NET *614 0.00472652
*CONN
*I *9140:A1 I *D gf180mcu_fd_sc_mcu7t5v0__or2_1
*I *9139:A1 I *D gf180mcu_fd_sc_mcu7t5v0__nor2_1
*I *9132:B I *D gf180mcu_fd_sc_mcu7t5v0__aoi21_1
*I *9450:Q O *D gf180mcu_fd_sc_mcu7t5v0__dffrnq_1
*CAP
1 *9140:A1 3.28034e-05
2 *9139:A1 0.00018256
3 *9132:B 3.7126e-05
4 *9450:Q 0.000250845
5 *614:23 0.000347047
6 *614:10 0.000419655
7 *9312:A1 *614:10 0.000851228
8 *9312:A3 *614:10 0.000154348
9 *9375:I1 *9132:B 7.2647e-05
10 *9375:I1 *9139:A1 0.000398787
11 *9375:I1 *614:10 0.000228415
12 *9375:I1 *614:23 0.000336522
13 *9451:RN *614:23 8.71765e-05
14 *256:12 *614:23 4.10312e-05
15 *375:72 *9139:A1 0.00027843
16 *375:72 *614:10 4.38725e-05
17 *375:72 *614:23 0.000229218
18 *407:57 *614:10 0.000734805
*RES
1 *9450:Q *614:10 13.104 
2 *614:10 *9132:B 9.38 
3 *614:10 *614:23 6.704 
4 *614:23 *9139:A1 7.084 
5 *614:23 *9140:A1 4.728 
*END

*D_NET *615 0.000776423
*CONN
*I *9450:D I *D gf180mcu_fd_sc_mcu7t5v0__dffrnq_1
*I *9270:ZN O *D gf180mcu_fd_sc_mcu7t5v0__aoi21_1
*CAP
1 *9450:D 0.000110698
2 *9270:ZN 0.000110698
3 *9136:A2 *9450:D 0.000189147
4 *9234:A2 *9450:D 0.000251817
5 *404:14 *9450:D 0
6 *594:83 *9450:D 0.000114063
*RES
1 *9270:ZN *9450:D 10.444 
*END

*D_NET *616 0.00194295
*CONN
*I *9323:A1 I *D gf180mcu_fd_sc_mcu7t5v0__nand2_1
*I *9402:Q O *D gf180mcu_fd_sc_mcu7t5v0__dffq_1
*CAP
1 *9323:A1 0.000136118
2 *9402:Q 0.000136118
3 *9320:A2 *9323:A1 0
4 *9323:A2 *9323:A1 0.000251045
5 *9324:A2 *9323:A1 0.000669179
6 *198:12 *9323:A1 5.87561e-06
7 *199:10 *9323:A1 0.000641859
8 *424:39 *9323:A1 0.00010276
*RES
1 *9402:Q *9323:A1 20.736 
*END

*D_NET *617 0.000919791
*CONN
*I *9327:A1 I *D gf180mcu_fd_sc_mcu7t5v0__nand2_1
*I *9403:Q O *D gf180mcu_fd_sc_mcu7t5v0__dffq_1
*CAP
1 *9327:A1 0.000306364
2 *9403:Q 0.000306364
3 *9325:I0 *9327:A1 0.000111867
4 *9328:A2 *9327:A1 0.000195195
*RES
1 *9403:Q *9327:A1 11.584 
*END

*D_NET *618 0.00146469
*CONN
*I *9331:A1 I *D gf180mcu_fd_sc_mcu7t5v0__nand2_1
*I *9404:Q O *D gf180mcu_fd_sc_mcu7t5v0__dffq_1
*CAP
1 *9331:A1 0.000246365
2 *9404:Q 0.000246365
3 *9331:A1 *9632:D[5] 0
4 *9332:A1 *9331:A1 0.000279004
5 *9332:A2 *9331:A1 0.000340241
6 *201:10 *9331:A1 5.3266e-05
7 *375:74 *9331:A1 1.48677e-05
8 *378:71 *9331:A1 6.82811e-05
9 *424:29 *9331:A1 0.000216304
*RES
1 *9404:Q *9331:A1 21.04 
*END

*D_NET *619 0.00216965
*CONN
*I *9335:A1 I *D gf180mcu_fd_sc_mcu7t5v0__nand2_1
*I *9405:Q O *D gf180mcu_fd_sc_mcu7t5v0__dffq_1
*CAP
1 *9335:A1 0.000178147
2 *9405:Q 0.000178147
3 *9335:A1 *9343:A1 0.00100147
4 *9335:A2 *9335:A1 0.00013063
5 *9340:A2 *9335:A1 0.000255714
6 *9406:CLK *9335:A1 2.74661e-05
7 *378:80 *9335:A1 3.19219e-05
8 *424:19 *9335:A1 0.000176126
9 *460:30 *9335:A1 0.000190028
*RES
1 *9405:Q *9335:A1 21.268 
*END

*D_NET *620 0.00165913
*CONN
*I *9339:A1 I *D gf180mcu_fd_sc_mcu7t5v0__nand2_1
*I *9406:Q O *D gf180mcu_fd_sc_mcu7t5v0__dffq_1
*CAP
1 *9339:A1 0.00035555
2 *9406:Q 0.00035555
3 *9339:A1 *9343:A1 1.15275e-05
4 *9339:A1 *9632:D[6] 0.000244692
5 *9333:I0 *9339:A1 0.000106366
6 *9339:A2 *9339:A1 8.55327e-05
7 *9340:A1 *9339:A1 1.49066e-06
8 *9340:A2 *9339:A1 0.00011704
9 *201:10 *9339:A1 3.37485e-05
10 *203:12 *9339:A1 0
11 *328:20 *9339:A1 4.13518e-05
12 *328:22 *9339:A1 2.97354e-06
13 *438:12 *9339:A1 0
14 *449:16 *9339:A1 0.000303305
*RES
1 *9406:Q *9339:A1 21.648 
*END

*D_NET *621 0.00431668
*CONN
*I *9343:A1 I *D gf180mcu_fd_sc_mcu7t5v0__nand2_1
*I *9407:Q O *D gf180mcu_fd_sc_mcu7t5v0__dffq_1
*CAP
1 *9343:A1 0.000235051
2 *9407:Q 0.000235051
3 *9343:A1 *9632:D[6] 0
4 *9335:A1 *9343:A1 0.00100147
5 *9337:I0 *9343:A1 0.000487378
6 *9339:A1 *9343:A1 1.15275e-05
7 *9340:A1 *9343:A1 0.000653985
8 *9340:A2 *9343:A1 5.75052e-05
9 *378:80 *9343:A1 0.000868512
10 *378:91 *9343:A1 0.000598418
11 *378:102 *9343:A1 0.000142809
12 *424:19 *9343:A1 6.33531e-06
13 *460:22 *9343:A1 1.86291e-05
*RES
1 *9407:Q *9343:A1 23.776 
*END

*D_NET *622 0.00241329
*CONN
*I *9347:A1 I *D gf180mcu_fd_sc_mcu7t5v0__nand2_1
*I *9408:Q O *D gf180mcu_fd_sc_mcu7t5v0__dffq_1
*CAP
1 *9347:A1 0.000785094
2 *9408:Q 0.000785094
3 *9283:A1 *9347:A1 1.2339e-05
4 *9408:D *9347:A1 3.22019e-05
5 *9443:D *9347:A1 7.83779e-05
6 *9596:I *9347:A1 4.09625e-06
7 *9639:I *9347:A1 3.29303e-05
8 *205:12 *9347:A1 5.13353e-05
9 *419:14 *9347:A1 0.000479088
10 *445:14 *9347:A1 0.000152738
11 *448:61 *9347:A1 0
*RES
1 *9408:Q *9347:A1 14.7 
*END

*D_NET *623 0.00087547
*CONN
*I *9351:A1 I *D gf180mcu_fd_sc_mcu7t5v0__nand2_1
*I *9409:Q O *D gf180mcu_fd_sc_mcu7t5v0__dffq_1
*CAP
1 *9351:A1 0.000334853
2 *9409:Q 0.000334853
3 *9351:A2 *9351:A1 2.6126e-05
4 *428:8 *9351:A1 7.71175e-06
5 *428:27 *9351:A1 0.000171927
*RES
1 *9409:Q *9351:A1 11.584 
*END

*D_NET *624 0.000877451
*CONN
*I *9355:A1 I *D gf180mcu_fd_sc_mcu7t5v0__nand2_1
*I *9410:Q O *D gf180mcu_fd_sc_mcu7t5v0__dffq_1
*CAP
1 *9355:A1 0.000159476
2 *9410:Q 0.000159476
3 *9355:A1 *9633:D[1] 0.000154451
4 *9352:A2 *9355:A1 0.000285856
5 *9353:I0 *9355:A1 6.73834e-05
6 *9411:CLK *9355:A1 5.08082e-05
*RES
1 *9410:Q *9355:A1 19.824 
*END

*D_NET *625 0.00122239
*CONN
*I *9359:A1 I *D gf180mcu_fd_sc_mcu7t5v0__nand2_1
*I *9411:Q O *D gf180mcu_fd_sc_mcu7t5v0__dffq_1
*CAP
1 *9359:A1 0.000611194
2 *9411:Q 0.000611194
3 *208:10 *9359:A1 0
*RES
1 *9411:Q *9359:A1 12.724 
*END

*D_NET *626 0.000763169
*CONN
*I *9363:A1 I *D gf180mcu_fd_sc_mcu7t5v0__nand2_1
*I *9412:Q O *D gf180mcu_fd_sc_mcu7t5v0__dffq_1
*CAP
1 *9363:A1 0.000333881
2 *9412:Q 0.000333881
3 *9145:I0 *9363:A1 0
4 *9363:A2 *9363:A1 8.55327e-05
5 *209:10 *9363:A1 9.87535e-06
*RES
1 *9412:Q *9363:A1 10.748 
*END

*D_NET *627 0.000574581
*CONN
*I *9367:A1 I *D gf180mcu_fd_sc_mcu7t5v0__nand2_1
*I *9413:Q O *D gf180mcu_fd_sc_mcu7t5v0__dffq_1
*CAP
1 *9367:A1 0.000213195
2 *9413:Q 0.000213195
3 *9415:D *9367:A1 0
4 *210:10 *9367:A1 0.000112501
5 *211:10 *9367:A1 3.56901e-05
6 *212:12 *9367:A1 0
*RES
1 *9413:Q *9367:A1 10.596 
*END

*D_NET *628 0.00117054
*CONN
*I *9371:A1 I *D gf180mcu_fd_sc_mcu7t5v0__nand2_1
*I *9414:Q O *D gf180mcu_fd_sc_mcu7t5v0__dffq_1
*CAP
1 *9371:A1 0.000542504
2 *9414:Q 0.000542504
3 *9371:A2 *9371:A1 8.55327e-05
4 *9413:D *9371:A1 0
5 *211:10 *9371:A1 0
*RES
1 *9414:Q *9371:A1 12.268 
*END

*D_NET *629 0.000916024
*CONN
*I *9143:A1 I *D gf180mcu_fd_sc_mcu7t5v0__nand2_1
*I *9415:Q O *D gf180mcu_fd_sc_mcu7t5v0__dffq_1
*CAP
1 *9143:A1 0.000205263
2 *9415:Q 0.000205263
3 *9143:A1 *9633:D[4] 7.01965e-05
4 *9144:A1 *9143:A1 0.000151949
5 *9372:A1 *9143:A1 0.00015961
6 *212:12 *9143:A1 0.000123745
*RES
1 *9415:Q *9143:A1 20.28 
*END

*D_NET *630 0.000638669
*CONN
*I *9148:A1 I *D gf180mcu_fd_sc_mcu7t5v0__nand2_1
*I *9416:Q O *D gf180mcu_fd_sc_mcu7t5v0__dffq_1
*CAP
1 *9148:A1 0.000281442
2 *9416:Q 0.000281442
3 *9148:A2 *9148:A1 7.57844e-05
*RES
1 *9416:Q *9148:A1 19.824 
*END

*D_NET *631 0.000607187
*CONN
*I *9152:A1 I *D gf180mcu_fd_sc_mcu7t5v0__nand2_1
*I *9417:Q O *D gf180mcu_fd_sc_mcu7t5v0__dffq_1
*CAP
1 *9152:A1 0.000212436
2 *9417:Q 0.000212436
3 *9149:A2 *9152:A1 0
4 *9152:A2 *9152:A1 0.000151426
5 *9153:A2 *9152:A1 3.08902e-05
*RES
1 *9417:Q *9152:A1 10.596 
*END

*D_NET *632 0.000421621
*CONN
*I *9156:A1 I *D gf180mcu_fd_sc_mcu7t5v0__nand2_1
*I *9418:Q O *D gf180mcu_fd_sc_mcu7t5v0__dffq_1
*CAP
1 *9156:A1 0.000205681
2 *9418:Q 0.000205681
3 *9148:A2 *9156:A1 0
4 *9156:A2 *9156:A1 0
5 *9157:A2 *9156:A1 1.02578e-05
*RES
1 *9418:Q *9156:A1 10.368 
*END

*D_NET *633 0.000405274
*CONN
*I *9160:A1 I *D gf180mcu_fd_sc_mcu7t5v0__nand2_1
*I *9419:Q O *D gf180mcu_fd_sc_mcu7t5v0__dffq_1
*CAP
1 *9160:A1 0.000188198
2 *9419:Q 0.000188198
3 *9160:A2 *9160:A1 2.88786e-05
4 *9161:A2 *9160:A1 0
*RES
1 *9419:Q *9160:A1 10.064 
*END

*D_NET *634 0.00156751
*CONN
*I *9164:A1 I *D gf180mcu_fd_sc_mcu7t5v0__nand2_1
*I *9420:Q O *D gf180mcu_fd_sc_mcu7t5v0__dffq_1
*CAP
1 *9164:A1 0.000221448
2 *9420:Q 0.000221448
3 *9164:A2 *9164:A1 0.00013063
4 *9165:A2 *9164:A1 1.5015e-05
5 *425:32 *9164:A1 0.000401849
6 *442:10 *9164:A1 0.000577125
*RES
1 *9420:Q *9164:A1 20.584 
*END

*D_NET *635 0.0013787
*CONN
*I *9168:A1 I *D gf180mcu_fd_sc_mcu7t5v0__nand2_1
*I *9421:Q O *D gf180mcu_fd_sc_mcu7t5v0__dffq_1
*CAP
1 *9168:A1 0.000224345
2 *9421:Q 0.000224345
3 *379:52 *9168:A1 0.000841577
4 *413:28 *9168:A1 0
5 *425:14 *9168:A1 8.84331e-05
*RES
1 *9421:Q *9168:A1 20.432 
*END

*D_NET *636 0.000861554
*CONN
*I *9172:A1 I *D gf180mcu_fd_sc_mcu7t5v0__nand2_1
*I *9422:Q O *D gf180mcu_fd_sc_mcu7t5v0__dffq_1
*CAP
1 *9172:A1 0.00023735
2 *9422:Q 0.00023735
3 *9172:A2 *9172:A1 0.000386853
4 *9173:A2 *9172:A1 0
5 *379:50 *9172:A1 0
*RES
1 *9422:Q *9172:A1 19.976 
*END

*D_NET *637 0.000947826
*CONN
*I *9176:A1 I *D gf180mcu_fd_sc_mcu7t5v0__nand2_1
*I *9423:Q O *D gf180mcu_fd_sc_mcu7t5v0__dffq_1
*CAP
1 *9176:A1 0.000277737
2 *9423:Q 0.000277737
3 *9177:A2 *9176:A1 0.000376901
4 *413:14 *9176:A1 1.54509e-05
*RES
1 *9423:Q *9176:A1 11.28 
*END

*D_NET *638 0.00196565
*CONN
*I *9181:A1 I *D gf180mcu_fd_sc_mcu7t5v0__nand2_1
*I *9424:Q O *D gf180mcu_fd_sc_mcu7t5v0__dffq_1
*CAP
1 *9181:A1 0.000318178
2 *9424:Q 0.000318178
3 *9181:A2 *9181:A1 0.00011539
4 *221:14 *9181:A1 0.0012139
*RES
1 *9424:Q *9181:A1 12.344 
*END

*D_NET *639 0.00163401
*CONN
*I *9185:A1 I *D gf180mcu_fd_sc_mcu7t5v0__nand2_1
*I *9425:Q O *D gf180mcu_fd_sc_mcu7t5v0__dffq_1
*CAP
1 *9185:A1 0.000116962
2 *9425:Q 0.000116962
3 *9185:A1 *9633:D[2] 0.000304752
4 *9347:A2 *9185:A1 0.000632894
5 *9352:A1 *9185:A1 0.000161414
6 *207:12 *9185:A1 0.000206333
7 *448:49 *9185:A1 9.46915e-05
*RES
1 *9425:Q *9185:A1 20.584 
*END

*D_NET *640 0.000522626
*CONN
*I *9189:A1 I *D gf180mcu_fd_sc_mcu7t5v0__nand2_1
*I *9426:Q O *D gf180mcu_fd_sc_mcu7t5v0__dffq_1
*CAP
1 *9189:A1 0.000121665
2 *9426:Q 0.000121665
3 *9189:A2 *9189:A1 0.000222333
4 *9190:A2 *9189:A1 1.11891e-05
5 *223:12 *9189:A1 4.57747e-05
*RES
1 *9426:Q *9189:A1 19.14 
*END

*D_NET *641 0.000397803
*CONN
*I *9193:A1 I *D gf180mcu_fd_sc_mcu7t5v0__nand2_1
*I *9427:Q O *D gf180mcu_fd_sc_mcu7t5v0__dffq_1
*CAP
1 *9193:A1 0.000155379
2 *9427:Q 0.000155379
3 *9189:A2 *9193:A1 8.70461e-05
*RES
1 *9427:Q *9193:A1 10.216 
*END

*D_NET *642 0.000929218
*CONN
*I *9197:A1 I *D gf180mcu_fd_sc_mcu7t5v0__nand2_1
*I *9428:Q O *D gf180mcu_fd_sc_mcu7t5v0__dffq_1
*CAP
1 *9197:A1 0.000464609
2 *9428:Q 0.000464609
3 *225:10 *9197:A1 0
*RES
1 *9428:Q *9197:A1 11.964 
*END

*D_NET *643 0.00221028
*CONN
*I *9201:A1 I *D gf180mcu_fd_sc_mcu7t5v0__nand2_1
*I *9429:Q O *D gf180mcu_fd_sc_mcu7t5v0__dffq_1
*CAP
1 *9201:A1 0.000210572
2 *9429:Q 0.000210572
3 *9199:I0 *9201:A1 0.00091424
4 *415:23 *9201:A1 0.000874893
*RES
1 *9429:Q *9201:A1 21.192 
*END

*D_NET *644 0.00185201
*CONN
*I *9205:A1 I *D gf180mcu_fd_sc_mcu7t5v0__nand2_1
*I *9430:Q O *D gf180mcu_fd_sc_mcu7t5v0__dffq_1
*CAP
1 *9205:A1 0.000287855
2 *9430:Q 0.000287855
3 *9199:I0 *9205:A1 0
4 *9202:A2 *9205:A1 0
5 *9207:I0 *9205:A1 5.07443e-05
6 *9209:A2 *9205:A1 2.6126e-05
7 *9429:CLK *9205:A1 9.42485e-06
8 *9430:D *9205:A1 0.000634991
9 *226:12 *9205:A1 0.000424388
10 *429:68 *9205:A1 0.00013063
*RES
1 *9430:Q *9205:A1 21.192 
*END

*D_NET *645 0.00159858
*CONN
*I *9209:A1 I *D gf180mcu_fd_sc_mcu7t5v0__nand2_1
*I *9431:Q O *D gf180mcu_fd_sc_mcu7t5v0__dffq_1
*CAP
1 *9209:A1 0.000342169
2 *9431:Q 0.000342169
3 *9211:I0 *9209:A1 0.000317618
4 *9431:D *9209:A1 0.000596622
5 *9431:CLK *9209:A1 0
6 *228:8 *9209:A1 0
*RES
1 *9431:Q *9209:A1 21.192 
*END

*D_NET *646 0.00148615
*CONN
*I *9315:A1 I *D gf180mcu_fd_sc_mcu7t5v0__nand2_1
*I *9400:Q O *D gf180mcu_fd_sc_mcu7t5v0__dffq_1
*CAP
1 *9315:A1 0.000272479
2 *9400:Q 0.000272479
3 *9315:A1 *9632:D[3] 1.87041e-05
4 *9315:A2 *9315:A1 0.000210554
5 *9316:A2 *9315:A1 0.000148709
6 *9324:A1 *9315:A1 6.12127e-06
7 *197:10 *9315:A1 0.000557104
*RES
1 *9400:Q *9315:A1 21.268 
*END

*D_NET *647 0.00085776
*CONN
*I *9319:A1 I *D gf180mcu_fd_sc_mcu7t5v0__nand2_1
*I *9401:Q O *D gf180mcu_fd_sc_mcu7t5v0__dffq_1
*CAP
1 *9319:A1 0.000266864
2 *9401:Q 0.000266864
3 *9317:I0 *9319:A1 2.20893e-05
4 *198:12 *9319:A1 0.000254643
5 *451:16 *9319:A1 4.72989e-05
*RES
1 *9401:Q *9319:A1 20.28 
*END

*D_NET *648 0.019892
*CONN
*I *9179:A1 I *D gf180mcu_fd_sc_mcu7t5v0__and2_1
*I *9146:A1 I *D gf180mcu_fd_sc_mcu7t5v0__and2_1
*I *9141:A1 I *D gf180mcu_fd_sc_mcu7t5v0__and2_1
*I *9267:A1 I *D gf180mcu_fd_sc_mcu7t5v0__nor3_2
*I *9268:S I *D gf180mcu_fd_sc_mcu7t5v0__mux2_2
*I *9231:A2 I *D gf180mcu_fd_sc_mcu7t5v0__nor2_1
*I *9313:A1 I *D gf180mcu_fd_sc_mcu7t5v0__and2_1
*I *9449:Q O *D gf180mcu_fd_sc_mcu7t5v0__dffrnq_1
*CAP
1 *9179:A1 8.70515e-05
2 *9146:A1 0.00110364
3 *9141:A1 0.000374696
4 *9267:A1 0
5 *9268:S 0
6 *9231:A2 0.000642611
7 *9313:A1 0.000151817
8 *9449:Q 0
9 *648:89 0.0023051
10 *648:34 0.00147313
11 *648:14 0.00113574
12 *648:10 0.000666922
13 *648:8 0.000716018
14 *648:4 0.00124584
15 *9141:A1 *9375:I0 5.02724e-05
16 *9146:A1 *9146:A2 0.000825393
17 *9146:A1 *652:10 0.000384717
18 *648:10 *9375:I0 6.47993e-06
19 *648:89 *9377:I0 2.57058e-06
20 tl_o[14] *9231:A2 0.000108891
21 *9237:A1 *648:34 9.35006e-05
22 *9237:A2 *648:34 0
23 *9245:B *9231:A2 0.00032464
24 *9257:B1 *9231:A2 0.00032464
25 *9266:A2 *648:14 0
26 *9267:A2 *648:14 1.37959e-05
27 *9267:A3 *648:34 0
28 *9268:I0 *648:34 0.000209639
29 *9301:A2 *648:89 0.000146738
30 *9374:I1 *9231:A2 0.000378833
31 *9377:S *648:89 0
32 *9397:CLK *648:14 0
33 *9449:RN *9141:A1 0
34 *9449:RN *648:8 0.000495697
35 *9449:RN *648:10 0
36 *9451:D *648:34 0.000116109
37 *9453:I *9231:A2 0.000552327
38 *9580:I *9231:A2 0.000109303
39 *9612:I *9231:A2 8.62647e-05
40 *3:50 *9146:A1 0
41 *191:10 *9146:A1 0.0012139
42 *192:8 *648:89 0.000344199
43 *304:18 *9231:A2 0.00025618
44 *327:13 *648:8 2.74753e-05
45 *327:13 *648:89 0
46 *380:207 *648:34 0.000491162
47 *380:220 *648:34 0.00016601
48 *380:229 *648:34 0.000855992
49 *407:57 *9141:A1 1.54509e-05
50 *407:57 *648:10 0
51 *407:57 *648:14 0
52 *438:56 *9231:A2 0.00011262
53 *438:56 *648:34 0.00100237
54 *438:72 *648:34 0.000374776
55 *449:59 *648:34 0
56 *460:160 *9141:A1 0.000787065
57 *460:160 *648:8 0
58 *460:160 *648:89 0.000112415
*RES
1 *9449:Q *648:4 4.5 
2 *648:4 *648:8 5.944 
3 *648:8 *648:10 1.292 
4 *648:10 *648:14 6.552 
5 *648:14 *648:34 13.544 
6 *648:34 *9313:A1 9.836 
7 *648:34 *9231:A2 15.612 
8 *648:14 *9268:S 4.5 
9 *648:10 *9267:A1 9 
10 *648:8 *9141:A1 12.496 
11 *648:4 *648:89 21.708 
12 *648:89 *9146:A1 19.792 
13 *648:89 *9179:A1 9.532 
*END

*D_NET *649 0.000438702
*CONN
*I *9449:D I *D gf180mcu_fd_sc_mcu7t5v0__dffrnq_1
*I *9268:Z O *D gf180mcu_fd_sc_mcu7t5v0__mux2_2
*CAP
1 *9449:D 0.000170425
2 *9268:Z 0.000170425
3 *9128:I *9449:D 9.78529e-05
*RES
1 *9268:Z *9449:D 10.216 
*END

*D_NET *650 0.00202948
*CONN
*I *9374:I0 I *D gf180mcu_fd_sc_mcu7t5v0__mux2_2
*I *9313:A2 I *D gf180mcu_fd_sc_mcu7t5v0__and2_1
*I *9396:Q O *D gf180mcu_fd_sc_mcu7t5v0__dffq_1
*CAP
1 *9374:I0 0
2 *9313:A2 8.99755e-05
3 *9396:Q 0.000308779
4 *650:10 0.000398755
5 *9374:S *650:10 0.000989072
6 *3:50 *9313:A2 6.44359e-05
7 *3:50 *650:10 7.23657e-05
8 *332:18 *650:10 0
9 *514:69 *9313:A2 0.000106097
*RES
1 *9396:Q *650:10 7.92 
2 *650:10 *9313:A2 5.488 
3 *650:10 *9374:I0 4.5 
*END

*D_NET *651 0.00352486
*CONN
*I *9375:I0 I *D gf180mcu_fd_sc_mcu7t5v0__mux2_2
*I *9141:A2 I *D gf180mcu_fd_sc_mcu7t5v0__and2_1
*I *9397:Q O *D gf180mcu_fd_sc_mcu7t5v0__dffq_1
*CAP
1 *9375:I0 0.000294459
2 *9141:A2 9.30053e-05
3 *9397:Q 8.73649e-05
4 *651:6 0.000474829
5 *9141:A1 *9375:I0 5.02724e-05
6 *281:16 *9141:A2 4.45507e-05
7 *407:57 *9375:I0 8.30371e-05
8 *412:45 *9141:A2 0.000209085
9 *412:45 *651:6 0.00127568
10 *439:18 *651:6 0.000152858
11 *460:160 *9141:A2 0.000171918
12 *460:160 *651:6 0.000581318
13 *648:10 *9375:I0 6.47993e-06
*RES
1 *9397:Q *651:6 7.768 
2 *651:6 *9141:A2 5.716 
3 *651:6 *9375:I0 15.552 
*END

*D_NET *652 0.00474053
*CONN
*I *9376:I0 I *D gf180mcu_fd_sc_mcu7t5v0__mux2_2
*I *9146:A2 I *D gf180mcu_fd_sc_mcu7t5v0__and2_1
*I *9398:Q O *D gf180mcu_fd_sc_mcu7t5v0__dffq_1
*CAP
1 *9376:I0 0.000711843
2 *9146:A2 0.000460494
3 *9398:Q 0.000464805
4 *652:10 0.00163714
5 *9146:A1 *9146:A2 0.000825393
6 *9146:A1 *652:10 0.000384717
7 *9376:I1 *9376:I0 0
8 *9376:S *9376:I0 7.24161e-06
9 *9398:D *9376:I0 0
10 *3:50 *9146:A2 0.000216363
11 *191:10 *9146:A2 3.25336e-05
12 *191:10 *9376:I0 0
13 *438:76 *652:10 0
*RES
1 *9398:Q *652:10 12.648 
2 *652:10 *9146:A2 14.016 
3 *652:10 *9376:I0 13.18 
*END

*D_NET *653 0.00425598
*CONN
*I *9179:A2 I *D gf180mcu_fd_sc_mcu7t5v0__and2_1
*I *9377:I0 I *D gf180mcu_fd_sc_mcu7t5v0__mux2_2
*I *9399:Q O *D gf180mcu_fd_sc_mcu7t5v0__dffq_1
*CAP
1 *9179:A2 9.0631e-05
2 *9377:I0 0.000508291
3 *9399:Q 0
4 *653:4 0.000598922
5 *9301:A1 *9377:I0 8.55327e-05
6 *9301:A2 *9377:I0 2.05156e-05
7 *192:8 *9179:A2 0.000359219
8 *192:8 *9377:I0 0.000404264
9 *375:72 *9377:I0 1.54542e-05
10 *412:45 *9179:A2 0.000803732
11 *412:45 *9377:I0 0.00104372
12 *439:18 *9377:I0 0.000123391
13 *460:164 *9377:I0 0.000199746
14 *648:89 *9377:I0 2.57058e-06
*RES
1 *9399:Q *653:4 4.5 
2 *653:4 *9377:I0 19.2 
3 *653:4 *9179:A2 6.78 
*END

*D_NET *654 0.00534563
*CONN
*I *9632:D[0] I *D gf180mcu_fd_ip_sram__sram256x8m8wm1
*I *9273:Z O *D gf180mcu_fd_sc_mcu7t5v0__and2_1
*CAP
1 *9632:D[0] 0.00267282
2 *9273:Z 0.00267282
3 *9632:WEN[0] *9632:D[0] 0
*RES
1 *9273:Z *9632:D[0] 31.094 
*END

*D_NET *655 0.0070279
*CONN
*I *9633:D[2] I *D gf180mcu_fd_ip_sram__sram256x8m8wm1
*I *9285:Z O *D gf180mcu_fd_sc_mcu7t5v0__and2_1
*CAP
1 *9633:D[2] 0.00164825
2 *9285:Z 0.00164825
3 *9633:D[2] *9633:D[1] 0
4 *9185:A1 *9633:D[2] 0.000304752
5 *9187:I0 *9633:D[2] 0.000289123
6 *9187:I1 *9633:D[2] 2.8725e-05
7 *9284:A1 *9633:D[2] 4.09625e-06
8 *9285:A2 *9633:D[2] 4.58601e-06
9 *9350:A1 *9633:D[2] 0.000202188
10 *9352:A1 *9633:D[2] 0.00013909
11 *9353:S *9633:D[2] 0.000191507
12 *9354:A1 *9633:D[2] 0
13 *9354:A3 *9633:D[2] 0.000216227
14 *9357:I0 *9633:D[2] 5.34282e-05
15 *9471:I *9633:D[2] 3.17095e-05
16 *9633:WEN[2] *9633:D[2] 4.68346e-05
17 *207:12 *9633:D[2] 9.96328e-05
18 *222:6 *9633:D[2] 2.84653e-05
19 *258:53 *9633:D[2] 0.000102756
20 *329:26 *9633:D[2] 0.000995575
21 *329:37 *9633:D[2] 0.00044442
22 *380:25 *9633:D[2] 1.76665e-05
23 *418:6 *9633:D[2] 0.000435105
24 *440:10 *9633:D[2] 2.54485e-05
25 *440:21 *9633:D[2] 2.28628e-05
26 *455:18 *9633:D[2] 4.72007e-05
*RES
1 *9285:Z *9633:D[2] 28.586 
*END

*D_NET *656 0.00371495
*CONN
*I *9633:D[3] I *D gf180mcu_fd_ip_sram__sram256x8m8wm1
*I *9286:Z O *D gf180mcu_fd_sc_mcu7t5v0__and2_1
*CAP
1 *9633:D[3] 0.00180776
2 *9286:Z 0.00180776
3 *9633:WEN[3] *9633:D[3] 9.94346e-05
*RES
1 *9286:Z *9633:D[3] 15.254 
*END

*D_NET *657 0.00367598
*CONN
*I *9633:D[4] I *D gf180mcu_fd_ip_sram__sram256x8m8wm1
*I *9287:Z O *D gf180mcu_fd_sc_mcu7t5v0__and2_1
*CAP
1 *9633:D[4] 0.00180289
2 *9287:Z 0.00180289
3 *9143:A1 *9633:D[4] 7.01965e-05
*RES
1 *9287:Z *9633:D[4] 15.406 
*END

*D_NET *658 0.00410034
*CONN
*I *9633:D[5] I *D gf180mcu_fd_ip_sram__sram256x8m8wm1
*I *9288:Z O *D gf180mcu_fd_sc_mcu7t5v0__and2_1
*CAP
1 *9633:D[5] 0.00151012
2 *9288:Z 0.00151012
3 *9633:D[5] *9633:D[6] 0.000339471
4 *9366:A1 *9633:D[5] 0.000714496
5 *9633:WEN[5] *9633:D[5] 2.61392e-05
*RES
1 *9288:Z *9633:D[5] 17.002 
*END

*D_NET *659 0.00413043
*CONN
*I *9633:D[6] I *D gf180mcu_fd_ip_sram__sram256x8m8wm1
*I *9289:Z O *D gf180mcu_fd_sc_mcu7t5v0__and2_1
*CAP
1 *9633:D[6] 0.00168571
2 *9289:Z 0.00168571
3 *9370:A1 *9633:D[6] 0.000400059
4 *9633:D[5] *9633:D[6] 0.000339471
5 *9633:WEN[6] *9633:D[6] 1.94732e-05
*RES
1 *9289:Z *9633:D[6] 25.546 
*END

*D_NET *660 0.00569937
*CONN
*I *9633:D[7] I *D gf180mcu_fd_ip_sram__sram256x8m8wm1
*I *9290:Z O *D gf180mcu_fd_sc_mcu7t5v0__and2_1
*CAP
1 *9633:D[7] 0.00284527
2 *9290:Z 0.00284527
3 *9633:WEN[7] *9633:D[7] 8.833e-06
*RES
1 *9290:Z *9633:D[7] 32.234 
*END

*D_NET *661 0.00200772
*CONN
*I *9634:D[0] I *D gf180mcu_fd_ip_sram__sram256x8m8wm1
*I *9293:Z O *D gf180mcu_fd_sc_mcu7t5v0__and2_1
*CAP
1 *9634:D[0] 0.000685754
2 *9293:Z 0.000685754
3 *9295:A1 *9634:D[0] 0.000636209
4 *9634:WEN[0] *9634:D[0] 0
*RES
1 *9293:Z *9634:D[0] 20.302 
*END

*D_NET *662 0.00765445
*CONN
*I *9634:D[1] I *D gf180mcu_fd_ip_sram__sram256x8m8wm1
*I *9294:Z O *D gf180mcu_fd_sc_mcu7t5v0__and2_1
*CAP
1 *9634:D[1] 0.00113401
2 *9294:Z 0.00113401
3 *9147:A1 *9634:D[1] 0.0001011
4 *9147:A2 *9634:D[1] 0.000160944
5 *9151:A1 *9634:D[1] 0.000177717
6 *9296:A1 *9634:D[1] 0.000112495
7 *9634:WEN[1] *9634:D[1] 2.61392e-05
8 *330:46 *9634:D[1] 0.00166966
9 *330:60 *9634:D[1] 0.00199366
10 *330:64 *9634:D[1] 0.00033338
11 *498:12 *9634:D[1] 0.000811325
*RES
1 *9294:Z *9634:D[1] 32.006 
*END

*D_NET *663 0.00617662
*CONN
*I *9634:D[2] I *D gf180mcu_fd_ip_sram__sram256x8m8wm1
*I *9295:Z O *D gf180mcu_fd_sc_mcu7t5v0__and2_1
*CAP
1 *9634:D[2] 0.00226551
2 *9295:Z 0.00226551
3 *9147:A1 *9634:D[2] 0
4 *9151:A1 *9634:D[2] 0.00103215
5 *9155:A1 *9634:D[2] 0
6 *9295:A1 *9634:D[2] 9.51843e-05
7 *9634:WEN[2] *9634:D[2] 3.76625e-05
8 *330:60 *9634:D[2] 4.58601e-06
9 *498:12 *9634:D[2] 0.000476025
*RES
1 *9295:Z *9634:D[2] 32.386 
*END

*D_NET *664 0.0128057
*CONN
*I *9634:D[3] I *D gf180mcu_fd_ip_sram__sram256x8m8wm1
*I *9296:Z O *D gf180mcu_fd_sc_mcu7t5v0__and2_1
*CAP
1 *9634:D[3] 0.00103101
2 *9296:Z 0.00103101
3 *9634:WEN[3] *9634:D[3] 2.61392e-05
4 *330:46 *9634:D[3] 0.00273636
5 *330:50 *9634:D[3] 4.58601e-06
6 *498:12 *9634:D[3] 0.00797655
*RES
1 *9296:Z *9634:D[3] 36.946 
*END

*D_NET *665 0.00349954
*CONN
*I *9632:D[1] I *D gf180mcu_fd_ip_sram__sram256x8m8wm1
*I *9274:Z O *D gf180mcu_fd_sc_mcu7t5v0__and2_1
*CAP
1 *9632:D[1] 0.00166581
2 *9274:Z 0.00166581
3 *9632:D[1] *9632:D[2] 0
4 *9318:A1 *9632:D[1] 0.000130262
5 *9632:WEN[1] *9632:D[1] 3.76625e-05
*RES
1 *9274:Z *9632:D[1] 15.254 
*END

*D_NET *666 0.00842279
*CONN
*I *9634:D[4] I *D gf180mcu_fd_ip_sram__sram256x8m8wm1
*I *9297:Z O *D gf180mcu_fd_sc_mcu7t5v0__and2_1
*CAP
1 *9634:D[4] 0.00156803
2 *9297:Z 0.00156803
3 *9167:A1 *9634:D[4] 0.00319075
4 *9169:A1 *9634:D[4] 0.00203349
5 *9634:WEN[4] *9634:D[4] 8.833e-06
6 *261:35 *9634:D[4] 5.3645e-05
*RES
1 *9297:Z *9634:D[4] 30.486 
*END

*D_NET *667 0.00207026
*CONN
*I *9634:D[5] I *D gf180mcu_fd_ip_sram__sram256x8m8wm1
*I *9298:Z O *D gf180mcu_fd_sc_mcu7t5v0__and2_1
*CAP
1 *9634:D[5] 0.000600366
2 *9298:Z 0.000600366
3 *9167:A1 *9634:D[5] 0.00084339
4 *9634:WEN[5] *9634:D[5] 2.61392e-05
*RES
1 *9298:Z *9634:D[5] 18.554 
*END

*D_NET *668 0.0014115
*CONN
*I *9634:D[6] I *D gf180mcu_fd_ip_sram__sram256x8m8wm1
*I *9299:Z O *D gf180mcu_fd_sc_mcu7t5v0__and2_1
*CAP
1 *9634:D[6] 0.000515278
2 *9299:Z 0.000515278
3 *9171:A1 *9634:D[6] 0.000354807
4 *9173:A1 *9634:D[6] 0
5 *9634:WEN[6] *9634:D[6] 2.61392e-05
*RES
1 *9299:Z *9634:D[6] 8.87 
*END

*D_NET *669 0.00553965
*CONN
*I *9634:D[7] I *D gf180mcu_fd_ip_sram__sram256x8m8wm1
*I *9300:Z O *D gf180mcu_fd_sc_mcu7t5v0__and2_1
*CAP
1 *9634:D[7] 0.00227565
2 *9300:Z 0.00227565
3 *9300:A2 *9634:D[7] 0.000988356
*RES
1 *9300:Z *9634:D[7] 30.486 
*END

*D_NET *670 0.0045417
*CONN
*I *9635:D[0] I *D gf180mcu_fd_ip_sram__sram256x8m8wm1
*I *9303:Z O *D gf180mcu_fd_sc_mcu7t5v0__and2_1
*CAP
1 *9635:D[0] 0.00183132
2 *9303:Z 0.00183132
3 *9303:A2 *9635:D[0] 0.00087024
4 *9635:WEN[0] *9635:D[0] 8.833e-06
*RES
1 *9303:Z *9635:D[0] 27.37 
*END

*D_NET *671 0.00167698
*CONN
*I *9635:D[1] I *D gf180mcu_fd_ip_sram__sram256x8m8wm1
*I *9304:Z O *D gf180mcu_fd_sc_mcu7t5v0__and2_1
*CAP
1 *9635:D[1] 0.000826186
2 *9304:Z 0.000826186
3 *9635:WEN[1] *9635:D[1] 1.94732e-05
4 *578:11 *9635:D[1] 5.13858e-06
*RES
1 *9304:Z *9635:D[1] 9.098 
*END

*D_NET *672 0.00123207
*CONN
*I *9635:D[2] I *D gf180mcu_fd_ip_sram__sram256x8m8wm1
*I *9305:Z O *D gf180mcu_fd_sc_mcu7t5v0__and2_1
*CAP
1 *9635:D[2] 0.000597206
2 *9305:Z 0.000597206
3 *9188:A1 *9635:D[2] 0
4 *9635:WEN[2] *9635:D[2] 3.76625e-05
*RES
1 *9305:Z *9635:D[2] 8.49 
*END

*D_NET *673 0.00445056
*CONN
*I *9635:D[3] I *D gf180mcu_fd_ip_sram__sram256x8m8wm1
*I *9306:Z O *D gf180mcu_fd_sc_mcu7t5v0__and2_1
*CAP
1 *9635:D[3] 0.00220357
2 *9306:Z 0.00220357
3 *9306:A1 *9635:D[3] 5.76373e-06
4 *9635:WEN[3] *9635:D[3] 3.76625e-05
*RES
1 *9306:Z *9635:D[3] 28.738 
*END

*D_NET *674 0.0112271
*CONN
*I *9635:D[4] I *D gf180mcu_fd_ip_sram__sram256x8m8wm1
*I *9307:Z O *D gf180mcu_fd_sc_mcu7t5v0__and2_1
*CAP
1 *9635:D[4] 0.000737805
2 *9307:Z 0.000737805
3 *9635:D[4] *9635:D[5] 0.000222333
4 *9198:A1 *9635:D[4] 0.00104128
5 *9635:WEN[4] *9635:D[4] 8.833e-06
6 *331:52 *9635:D[4] 0.00607519
7 *505:12 *9635:D[4] 0.00240389
*RES
1 *9307:Z *9635:D[4] 32.462 
*END

*D_NET *675 0.00966865
*CONN
*I *9635:D[5] I *D gf180mcu_fd_ip_sram__sram256x8m8wm1
*I *9308:Z O *D gf180mcu_fd_sc_mcu7t5v0__and2_1
*CAP
1 *9635:D[5] 0.000820552
2 *9308:Z 0.000820552
3 *9200:A1 *9635:D[5] 0
4 *9635:D[4] *9635:D[5] 0.000222333
5 *9635:WEN[5] *9635:D[5] 3.76625e-05
6 *331:52 *9635:D[5] 8.8608e-05
7 *331:67 *9635:D[5] 0.00240998
8 *505:12 *9635:D[5] 0.00526897
*RES
1 *9308:Z *9635:D[5] 30.486 
*END

*D_NET *676 0.00345124
*CONN
*I *9632:D[2] I *D gf180mcu_fd_ip_sram__sram256x8m8wm1
*I *9275:Z O *D gf180mcu_fd_sc_mcu7t5v0__and2_1
*CAP
1 *9632:D[2] 0.00165119
2 *9275:Z 0.00165119
3 *9322:A1 *9632:D[2] 0.000122715
4 *9632:D[1] *9632:D[2] 0
5 *9632:WEN[2] *9632:D[2] 2.61392e-05
*RES
1 *9275:Z *9632:D[2] 15.026 
*END

*D_NET *677 0.00927018
*CONN
*I *9635:D[6] I *D gf180mcu_fd_ip_sram__sram256x8m8wm1
*I *9309:Z O *D gf180mcu_fd_sc_mcu7t5v0__and2_1
*CAP
1 *9635:D[6] 0.00156744
2 *9309:Z 0.00156744
3 *9204:A1 *9635:D[6] 0.000172009
4 *9208:A1 *9635:D[6] 7.72929e-06
5 *9309:A2 *9635:D[6] 1.08231e-05
6 *9635:WEN[6] *9635:D[6] 1.94732e-05
7 *331:80 *9635:D[6] 0.000311652
8 *505:12 *9635:D[6] 0.00504711
9 *507:14 *9635:D[6] 0.00056651
*RES
1 *9309:Z *9635:D[6] 30.106 
*END

*D_NET *678 0.00234299
*CONN
*I *9635:D[7] I *D gf180mcu_fd_ip_sram__sram256x8m8wm1
*I *9310:Z O *D gf180mcu_fd_sc_mcu7t5v0__and2_1
*CAP
1 *9635:D[7] 0.00117149
2 *9310:Z 0.00117149
3 *9635:WEN[7] *9635:D[7] 0
*RES
1 *9310:Z *9635:D[7] 21.594 
*END

*D_NET *679 0.00391278
*CONN
*I *9632:D[3] I *D gf180mcu_fd_ip_sram__sram256x8m8wm1
*I *9276:Z O *D gf180mcu_fd_sc_mcu7t5v0__and2_1
*CAP
1 *9632:D[3] 0.00188776
2 *9276:Z 0.00188776
3 *9315:A1 *9632:D[3] 1.87041e-05
4 *9315:A2 *9632:D[3] 6.03838e-05
5 *9632:WEN[3] *9632:D[3] 5.81781e-05
*RES
1 *9276:Z *9632:D[3] 16.09 
*END

*D_NET *680 0.00390319
*CONN
*I *9632:D[4] I *D gf180mcu_fd_ip_sram__sram256x8m8wm1
*I *9277:Z O *D gf180mcu_fd_sc_mcu7t5v0__and2_1
*CAP
1 *9632:D[4] 0.00194718
2 *9277:Z 0.00194718
3 *9632:WEN[4] *9632:D[4] 8.833e-06
*RES
1 *9277:Z *9632:D[4] 15.482 
*END

*D_NET *681 0.00442863
*CONN
*I *9632:D[5] I *D gf180mcu_fd_ip_sram__sram256x8m8wm1
*I *9278:Z O *D gf180mcu_fd_sc_mcu7t5v0__and2_1
*CAP
1 *9632:D[5] 0.00165448
2 *9278:Z 0.00165448
3 *9331:A1 *9632:D[5] 0
4 *9331:A2 *9632:D[5] 5.75752e-06
5 *9334:A1 *9632:D[5] 0.000326865
6 *9336:A1 *9632:D[5] 0.000190336
7 *9632:WEN[5] *9632:D[5] 2.61392e-05
8 *9651:I *9632:D[5] 0.000384885
9 *189:34 *9632:D[5] 0
10 *201:10 *9632:D[5] 0.000113209
11 *332:35 *9632:D[5] 0
12 *375:74 *9632:D[5] 7.24795e-05
*RES
1 *9278:Z *9632:D[5] 25.014 
*END

*D_NET *682 0.00479978
*CONN
*I *9632:D[6] I *D gf180mcu_fd_ip_sram__sram256x8m8wm1
*I *9279:Z O *D gf180mcu_fd_sc_mcu7t5v0__and2_1
*CAP
1 *9632:D[6] 0.00142254
2 *9279:Z 0.00142254
3 *9334:A1 *9632:D[6] 1.49066e-06
4 *9336:A1 *9632:D[6] 0
5 *9338:A1 *9632:D[6] 0.000708165
6 *9338:A3 *9632:D[6] 7.83779e-05
7 *9339:A1 *9632:D[6] 0.000244692
8 *9339:A2 *9632:D[6] 8.55327e-05
9 *9340:A1 *9632:D[6] 0
10 *9343:A1 *9632:D[6] 0
11 *9343:A2 *9632:D[6] 8.89666e-06
12 *9404:D *9632:D[6] 4.03623e-05
13 *9632:WEN[6] *9632:D[6] 2.61392e-05
14 *189:34 *9632:D[6] 2.91799e-05
15 *332:35 *9632:D[6] 0.00013063
16 *449:16 *9632:D[6] 0.000601239
*RES
1 *9279:Z *9632:D[6] 15.71 
*END

*D_NET *683 0.00929001
*CONN
*I *9632:D[7] I *D gf180mcu_fd_ip_sram__sram256x8m8wm1
*I *9280:Z O *D gf180mcu_fd_sc_mcu7t5v0__and2_1
*CAP
1 *9632:D[7] 0.00204299
2 *9280:Z 0.00204299
3 *9241:B2 *9632:D[7] 0.000483799
4 *9394:A1 *9632:D[7] 0.00121373
5 *9394:A2 *9632:D[7] 8.55624e-05
6 *9395:B *9632:D[7] 0.000185193
7 *9405:CLK *9632:D[7] 0.00041486
8 *9554:I *9632:D[7] 0.000139861
9 *9582:I *9632:D[7] 7.13995e-05
10 *9632:WEN[7] *9632:D[7] 0
11 *9653:I *9632:D[7] 1.43522e-05
12 *9663:I *9632:D[7] 0.000130184
13 *332:18 *9632:D[7] 0
14 *367:33 *9632:D[7] 0.000369984
15 *371:8 *9632:D[7] 6.40656e-06
16 *372:18 *9632:D[7] 0.000580028
17 *426:12 *9632:D[7] 0.00150865
18 *458:18 *9632:D[7] 0
*RES
1 *9280:Z *9632:D[7] 32.918 
*END

*D_NET *684 0.00582718
*CONN
*I *9633:D[0] I *D gf180mcu_fd_ip_sram__sram256x8m8wm1
*I *9283:Z O *D gf180mcu_fd_sc_mcu7t5v0__and2_1
*CAP
1 *9633:D[0] 0.00123068
2 *9283:Z 0.00123068
3 *9138:A1 *9633:D[0] 0.000110828
4 *9138:A3 *9633:D[0] 3.20563e-06
5 *9282:A3 *9633:D[0] 0
6 *9382:I0 *9633:D[0] 0.00024871
7 *9580:I *9633:D[0] 2.64566e-05
8 *9633:WEN[0] *9633:D[0] 0
9 *190:19 *9633:D[0] 0
10 *308:12 *9633:D[0] 0.00188078
11 *495:18 *9633:D[0] 0.000841577
12 *594:117 *9633:D[0] 0.000102079
13 *594:119 *9633:D[0] 8.99616e-05
14 *594:129 *9633:D[0] 6.22213e-05
*RES
1 *9283:Z *9633:D[0] 24.862 
*END

*D_NET *685 0.00649861
*CONN
*I *9633:D[1] I *D gf180mcu_fd_ip_sram__sram256x8m8wm1
*I *9284:Z O *D gf180mcu_fd_sc_mcu7t5v0__and2_1
*CAP
1 *9633:D[1] 0.00180037
2 *9284:Z 0.00180037
3 *9186:A2 *9633:D[1] 9.03572e-05
4 *9350:A1 *9633:D[1] 0.000189249
5 *9352:A1 *9633:D[1] 0
6 *9353:I0 *9633:D[1] 0.000106097
7 *9354:A1 *9633:D[1] 0
8 *9355:A1 *9633:D[1] 0.000154451
9 *9356:A1 *9633:D[1] 0
10 *9356:A2 *9633:D[1] 0
11 *9409:D *9633:D[1] 6.50663e-05
12 *9425:CLK *9633:D[1] 0.000415649
13 *9633:D[2] *9633:D[1] 0
14 *9633:WEN[1] *9633:D[1] 4.68346e-05
15 *9664:I *9633:D[1] 0.000130188
16 *222:6 *9633:D[1] 0
17 *381:48 *9633:D[1] 0.000206253
18 *448:49 *9633:D[1] 0.000356655
19 *455:18 *9633:D[1] 0.000978955
20 *466:18 *9633:D[1] 0.000158119
*RES
1 *9284:Z *9633:D[1] 28.054 
*END

*D_NET *686 0.0678586
*CONN
*I *9633:CEN I *D gf180mcu_fd_ip_sram__sram256x8m8wm1
*I *9635:CEN I *D gf180mcu_fd_ip_sram__sram256x8m8wm1
*I *9547:I I *D gf180mcu_fd_sc_mcu7t5v0__buf_8
*I *9265:ZN O *D gf180mcu_fd_sc_mcu7t5v0__nand3_4
*CAP
1 *9633:CEN 5.88102e-05
2 *9635:CEN 4.92051e-05
3 *9547:I 1.68059e-05
4 *9265:ZN 0.000186392
5 *686:33 0.0147877
6 *686:31 0.0147385
7 *686:29 0.00225409
8 *686:27 0.0054179
9 *686:10 0.00342582
10 *9265:A1 *686:10 0.00025617
11 *9375:I1 *9547:I 0.000258197
12 *9580:I *686:27 0
13 *190:10 *686:27 1.36298e-05
14 *190:23 *686:27 0.00561599
15 *190:33 *686:27 0.000272143
16 *190:45 *686:27 0.00589833
17 *190:57 *686:27 0.00147069
18 *190:57 *686:29 0.00146707
19 *190:61 *686:29 0.00950929
20 *281:16 *9547:I 0.000226447
21 *448:61 *686:27 0.00135378
22 *460:160 *686:10 0.000218985
23 *512:94 *686:10 0.000362547
*RES
1 *9265:ZN *686:10 11.128 
2 *686:10 *9547:I 9.684 
3 *686:10 *686:27 42.408 
4 *686:27 *686:29 30.172 
5 *686:29 *686:31 4.5 
6 *686:31 *686:33 108.908 
7 *686:33 *9635:CEN 9.342 
8 *686:29 *9633:CEN 4.842 
*END

*D_NET *687 0.0452043
*CONN
*I *9546:I I *D gf180mcu_fd_sc_mcu7t5v0__buf_12
*I *9635:GWEN I *D gf180mcu_fd_ip_sram__sram256x8m8wm1
*I *9633:GWEN I *D gf180mcu_fd_ip_sram__sram256x8m8wm1
*I *9312:ZN O *D gf180mcu_fd_sc_mcu7t5v0__nand4_4
*CAP
1 *9546:I 0
2 *9635:GWEN 0
3 *9633:GWEN 8.88059e-05
4 *9312:ZN 0.000111506
5 *687:35 0.013926
6 *687:33 0.0145336
7 *687:20 0.00797107
8 *687:8 0.00738623
9 *9375:I1 *687:8 0.000231978
10 *281:16 *687:8 0.000738493
11 *431:26 *687:20 0.000111443
12 *439:18 *687:20 6.13125e-05
13 *460:160 *687:8 4.38802e-05
*RES
1 *9312:ZN *687:8 6.628 
2 *687:8 *687:20 42.835 
3 *687:20 *9633:GWEN 9.589 
4 *687:20 *687:33 4.579 
5 *687:33 *687:35 103.056 
6 *687:35 *9635:GWEN 9 
7 *687:8 *9546:I 4.5 
*END
